5000

    0.0100000      -1.2699727
    0.0200000      -2.3823972
    0.0300000      -3.2021679
    0.0400000      -3.6356213
    0.0500000      -3.6433026
    0.0600000      -3.2445347
    0.0700000      -2.5132795
    0.0800000      -1.5660715
    0.0900000     -0.54397351
     0.100000      0.40846989
     0.110000       1.1641248
     0.120000       1.6307484
     0.130000       1.7626338
     0.140000       1.5648428
     0.150000       1.0897940
     0.160000      0.42700823
     0.170000     -0.31196021
     0.180000      -1.0109396
     0.190000      -1.5661028
     0.200000      -1.8999136
     0.210000      -1.9702180
     0.220000      -1.7734278
     0.230000      -1.3418053
     0.240000     -0.73578285
     0.250000    -0.032889877
     0.260000      0.68463024
     0.270000       1.3415483
     0.280000       1.8789565
     0.290000       2.2599649
     0.300000       2.4714335
     0.310000       2.5218228
     0.320000       2.4361735
     0.330000       2.2493298
     0.340000       1.9988635
     0.350000       1.7188307
     0.360000       1.4354379
     0.370000       1.1649550
     0.380000      0.91391677
     0.390000      0.68122100
     0.400000      0.46130989
     0.410000      0.24770403
     0.420000     0.035999168
     0.430000     -0.17417250
     0.440000     -0.37855041
     0.450000     -0.56898428
     0.460000     -0.73517825
     0.470000     -0.86698028
     0.480000     -0.95661968
     0.490000      -1.0004342
     0.500000     -0.99968974
     0.510000     -0.96040709
     0.520000     -0.89226588
     0.530000     -0.80685056
     0.540000     -0.71564944
     0.550000     -0.62823574
     0.560000     -0.55095112
     0.570000     -0.48635442
     0.580000     -0.43346011
     0.590000     -0.38867315
     0.600000     -0.34718420
     0.610000     -0.30446983
     0.620000     -0.25761649
     0.630000     -0.20616503
     0.640000     -0.15237115
     0.650000     -0.10081732
     0.660000    -0.057533312
     0.670000    -0.028796831
     0.680000    -0.019902974
     0.690000    -0.034131486
     0.700000    -0.072116774
     0.710000     -0.13173795
     0.720000     -0.20848341
     0.730000     -0.29623748
     0.740000     -0.38828810
     0.750000     -0.47834677
     0.760000     -0.56140626
     0.770000     -0.63428489
     0.780000     -0.69576780
     0.790000     -0.74639109
     0.800000     -0.78792575
     0.810000     -0.82273531
     0.820000     -0.85307554
     0.830000     -0.88062805
     0.840000     -0.90617624
     0.850000     -0.92963000
     0.860000     -0.95026433
     0.870000     -0.96712717
     0.880000     -0.97951954
     0.890000     -0.98738730
     0.900000     -0.99155974
     0.910000     -0.99377144
     0.920000     -0.99644765
     0.930000      -1.0023045
     0.940000      -1.0138354
     0.950000      -1.0328703
     0.960000      -1.0601521
     0.970000      -1.0952043
     0.980000      -1.1363875
     0.990000      -1.1811688
      1.00000      -1.2266153
      1.01000      -1.2698949
      1.02000      -1.3087948
      1.03000      -1.3420882
      1.04000      -1.3696918
      1.05000      -1.3926035
      1.06000      -1.4125729
      1.07000      -1.4316871
      1.08000      -1.4517977
      1.09000      -1.4740889
      1.10000      -1.4987478
      1.11000      -1.5248226
      1.12000      -1.5504039
      1.13000      -1.5729620
      1.14000      -1.5898948
      1.15000      -1.5990985
      1.16000      -1.5995225
      1.17000      -1.5914754
      1.18000      -1.5768073
      1.19000      -1.5587082
      1.20000      -1.5413028
      1.21000      -1.5290119
      1.22000      -1.5258747
      1.23000      -1.5348768
      1.24000      -1.5574178
      1.25000      -1.5930713
      1.26000      -1.6396130
      1.27000      -1.6933260
      1.28000      -1.7495695
      1.29000      -1.8034877
      1.30000      -1.8507363
      1.31000      -1.8880508
      1.32000      -1.9137107
      1.33000      -1.9276403
      1.34000      -1.9312929
      1.35000      -1.9272815
      1.36000      -1.9188434
      1.37000      -1.9092505
      1.38000      -1.9012782
      1.39000      -1.8968377
      1.40000      -1.8967690
      1.41000      -1.9009009
      1.42000      -1.9082551
      1.43000      -1.9174546
      1.44000      -1.9270390
      1.45000      -1.9358643
      1.46000      -1.9432640
      1.47000      -1.9491489
      1.48000      -1.9538528
      1.49000      -1.9579210
      1.50000      -1.9617985
      1.51000      -1.9655547
      1.52000      -1.9687216
      1.53000      -1.9702410
      1.54000      -1.9686850
      1.55000      -1.9624996
      1.56000      -1.9504671
      1.57000      -1.9320887
      1.58000      -1.9079764
      1.59000      -1.8799854
      1.60000      -1.8511991
      1.61000      -1.8256305
      1.62000      -1.8077554
      1.63000      -1.8018754
      1.64000      -1.8114207
      1.65000      -1.8383836
      1.66000      -1.8828855
      1.67000      -1.9429920
      1.68000      -2.0148579
      1.69000      -2.0930833
      1.70000      -2.1713975
      1.71000      -2.2433401
      1.72000      -2.3031596
      1.73000      -2.3464378
      1.74000      -2.3707122
      1.75000      -2.3757170
      1.76000      -2.3634788
      1.77000      -2.3380036
      1.78000      -2.3048655
      1.79000      -2.2705515
      1.80000      -2.2416616
      1.81000      -2.2242110
      1.82000      -2.2228382
      1.83000      -2.2401930
      1.84000      -2.2763892
      1.85000      -2.3287351
      1.86000      -2.3915947
      1.87000      -2.4564433
      1.88000      -2.5122695
      1.89000      -2.5460776
      1.90000      -2.5437255
      1.91000      -2.4908761
      1.92000      -2.3741483
      1.93000      -2.1822609
      1.94000      -1.9071681
      1.95000      -1.5450011
      1.96000      -1.0966940
      1.97000     -0.56827648
      1.98000     0.029380871
      1.99000      0.68122441
      2.00000       1.3691154
      2.01000       2.0733059
      2.02000       2.7740218
      2.03000       3.4529680
      2.04000       4.0947473
      2.05000       4.6877607
      2.06000       5.2245651
      2.07000       5.7017986
      2.08000       6.1194869
      2.09000       6.4798493
      2.10000       6.7860297
      2.11000       7.0406958
      2.12000       7.2448881
      2.13000       7.3973588
      2.14000       7.4941813
      2.15000       7.5293413
      2.16000       7.4953928
      2.17000       7.3849690
      2.18000       7.1920737
      2.19000       6.9136448
      2.20000       6.5505628
      2.21000       6.1082737
      2.22000       5.5968489
      2.23000       5.0303984
      2.24000       4.4258014
      2.25000       3.8012213
      2.26000       3.1743608
      2.27000       2.5608539
      2.28000       1.9729945
      2.29000       1.4189884
      2.30000      0.90283445
      2.31000      0.42487078
      2.32000    -0.017194634
      2.33000     -0.42688135
      2.34000     -0.80742770
      2.35000      -1.1604640
      2.36000      -1.4850501
      2.37000      -1.7772753
      2.38000      -2.0305171
      2.39000      -2.2362430
      2.40000      -2.3853139
      2.41000      -2.4695431
      2.42000      -2.4832441
      2.43000      -2.4245087
      2.44000      -2.2960430
      2.45000      -2.1053763
      2.46000      -1.8643446
      2.47000      -1.5880888
      2.48000      -1.2935114
      2.49000     -0.99754975
      2.50000     -0.71549222
      2.51000     -0.45956215
      2.52000     -0.23797685
      2.53000    -0.054611784
      2.54000     0.090737662
      2.55000      0.20156610
      2.56000      0.28349069
      2.57000      0.34294527
      2.58000      0.38592502
      2.59000      0.41701163
      2.60000      0.43881281
      2.61000      0.45187121
      2.62000      0.45501624
      2.63000      0.44606757
      2.64000      0.42272129
      2.65000      0.38342792
      2.66000      0.32809627
      2.67000      0.25848749
      2.68000      0.17823061
      2.69000     0.092459145
      2.70000    0.0071638224
      2.71000    -0.071649394
      2.72000     -0.13877496
      2.73000     -0.19050907
      2.74000     -0.22508783
      2.75000     -0.24277482
      2.76000     -0.24565564
      2.77000     -0.23711694
      2.78000     -0.22119595
      2.79000     -0.20188257
      2.80000     -0.18250215
      2.81000     -0.16532917
      2.82000     -0.15141066
      2.83000     -0.14069157
      2.84000     -0.13231913
      2.85000     -0.12510294
      2.86000     -0.11797319
      2.87000     -0.11039455
      2.88000     -0.10260495
      2.89000    -0.095700990
      2.90000    -0.091518233
      2.91000    -0.092405219
      2.92000     -0.10092607
      2.93000     -0.11958206
      2.94000     -0.15060700
      2.95000     -0.19588073
      2.96000     -0.25695555
      2.97000     -0.33516236
      2.98000     -0.43171524
      2.99000     -0.54779471
      3.00000     -0.68446549
      3.01000     -0.84248701
      3.02000      -1.0219662
      3.03000      -1.2219176
      3.04000      -1.4398613
      3.05000      -1.6714687
      3.06000      -1.9105013
      3.07000      -2.1489666
      3.08000      -2.3776700
      3.09000      -2.5870290
      3.10000      -2.7680263
      3.11000      -2.9133549
      3.12000      -3.0183264
      3.13000      -3.0815870
      3.14000      -3.1053653
      3.15000      -3.0952704
      3.16000      -3.0596211
      3.17000      -3.0083502
      3.18000      -2.9516356
      3.19000      -2.8985789
      3.20000      -2.8559528
      3.21000      -2.8272957
      3.22000      -2.8125681
      3.23000      -2.8082282
      3.24000      -2.8078282
      3.25000      -2.8030535
      3.26000      -2.7848973
      3.27000      -2.7448931
      3.28000      -2.6761277
      3.29000      -2.5740250
      3.30000      -2.4366352
      3.31000      -2.2645672
      3.32000      -2.0605764
      3.33000      -1.8289352
      3.34000      -1.5747361
      3.35000      -1.3032874
      3.36000      -1.0197329
      3.37000     -0.72888459
      3.38000     -0.43536861
      3.39000     -0.14390930
      3.40000      0.14029158
      3.41000      0.41126619
      3.42000      0.66219046
      3.43000      0.88557708
      3.44000       1.0737977
      3.45000       1.2198631
      3.46000       1.3183850
      3.47000       1.3665183
      3.48000       1.3647535
      3.49000       1.3173140
      3.50000       1.2321667
      3.51000       1.1204338
      3.52000      0.99539233
      3.53000      0.87108291
      3.54000      0.76075791
      3.55000      0.67536315
      3.56000      0.62230975
      3.57000      0.60467805
      3.58000      0.62102360
      3.59000      0.66575144
      3.60000      0.73007443
      3.61000      0.80332219
      3.62000      0.87447119
      3.63000      0.93362389
      3.64000      0.97320133
      3.65000      0.98875482
      3.66000      0.97919690
      3.67000      0.94653436
      3.68000      0.89516153
      3.69000      0.83083420
      3.70000      0.75955198
      3.71000      0.68658688
      3.72000      0.61573714
      3.73000      0.54904681
      3.74000      0.48691725
      3.75000      0.42864205
      3.76000      0.37320861
      3.77000      0.32019504
      3.78000      0.27057588
      3.79000      0.22726644
      3.80000      0.19524214
      3.81000      0.18124191
      3.82000      0.19300149
      3.83000      0.23819649
      3.84000      0.32323102
      3.85000      0.45208822
      3.86000      0.62543265
      3.87000      0.84016194
      3.88000       1.0894127
      3.89000       1.3631385
      3.90000       1.6491172
      3.91000       1.9341985
      3.92000       2.2056465
      3.93000       2.4523495
      3.94000       2.6656441
      3.95000       2.8397296
      3.96000       2.9715428
      3.97000       3.0602131
      3.98000       3.1061753
      3.99000       3.1101862
      4.00000       3.0725252
      4.01000       2.9923905
      4.02000       2.8678156
      4.03000       2.6961714
      4.04000       2.4749411
      4.05000       2.2030569
      4.06000       1.8820592
      4.07000       1.5173078
      4.08000       1.1185656
      4.09000      0.70017454
      4.10000      0.28024897
      4.11000     -0.12052300
      4.12000     -0.48084999
      4.13000     -0.78107158
      4.14000      -1.0052261
      4.15000      -1.1429921
      4.16000      -1.1908495
      4.17000      -1.1525144
      4.18000      -1.0384649
      4.19000     -0.86464827
      4.20000     -0.65057103
      4.21000     -0.41700131
      4.22000     -0.18377586
      4.23000     0.032304864
      4.24000      0.21878293
      4.25000      0.36835202
      4.26000      0.47876583
      4.27000      0.55221650
      4.28000      0.59415312
      4.29000      0.61195192
      4.30000      0.61359043
      4.31000      0.60657060
      4.32000      0.59727836
      4.33000      0.59074727
      4.34000      0.59083343
      4.35000      0.60065169
      4.36000      0.62306256
      4.37000      0.66106066
      4.38000      0.71791569
      4.39000      0.79693876
      4.40000      0.90098625
      4.41000       1.0316320
      4.42000       1.1884033
      4.43000       1.3680054
      4.44000       1.5639555
      4.45000       1.7665790
      4.46000       1.9635839
      4.47000       2.1410007
      4.48000       2.2845709
      4.49000       2.3811255
      4.50000       2.4200859
      4.51000       2.3944728
      4.52000       2.3016019
      4.53000       2.1432105
      4.54000       1.9250209
      4.55000       1.6559138
      4.56000       1.3467942
      4.57000       1.0094556
      4.58000      0.65538257
      4.59000      0.29509075
      4.60000    -0.062510486
      4.61000     -0.41008223
      4.62000     -0.74173129
      4.63000      -1.0526811
      4.64000      -1.3387543
      4.65000      -1.5961410
      4.66000      -1.8211589
      4.67000      -2.0103886
      4.68000      -2.1608678
      4.69000      -2.2705289
      4.70000      -2.3385301
      4.71000      -2.3656110
      4.72000      -2.3541572
      4.73000      -2.3080731
      4.74000      -2.2324814
      4.75000      -2.1331222
      4.76000      -2.0158755
      4.77000      -1.8861408
      4.78000      -1.7485738
      4.79000      -1.6068532
      4.80000      -1.4638643
      4.81000      -1.3219787
      4.82000      -1.1835338
      4.83000      -1.0512163
      4.84000     -0.92843549
      4.85000     -0.81937862
      4.86000     -0.72888113
      4.87000     -0.66194519
      4.88000     -0.62315249
      4.89000     -0.61593760
      4.90000     -0.64194429
      4.91000     -0.70059504
      4.92000     -0.78892721
      4.93000     -0.90176019
      4.94000      -1.0322288
      4.95000      -1.1724698
      4.96000      -1.3144777
      4.97000      -1.4508196
      4.98000      -1.5752711
      4.99000      -1.6830355
      5.00000      -1.7707671
      5.01000      -1.8362143
      5.02000      -1.8777383
      5.03000      -1.8937606
      5.04000      -1.8823560
      5.05000      -1.8410571
      5.06000      -1.7669783
      5.07000      -1.6573386
      5.08000      -1.5101620
      5.09000      -1.3251833
      5.10000      -1.1046304
      5.11000     -0.85385704
      5.12000     -0.58143938
      5.13000     -0.29892739
      5.14000    -0.019987533
      5.15000      0.24093742
      5.16000      0.47005446
      5.17000      0.65594037
      5.18000      0.79081378
      5.19000      0.87162701
      5.20000      0.90037414
      5.21000      0.88389108
      5.22000      0.83291861
      5.23000      0.76071529
      5.24000      0.68137307
      5.25000      0.60805056
      5.26000      0.55146215
      5.27000      0.51875997
      5.28000      0.51303366
      5.29000      0.53340093
      5.30000      0.57571921
      5.31000      0.63368605
      5.32000      0.70020729
      5.33000      0.76875183
      5.34000      0.83440104
      5.35000      0.89459758
      5.36000      0.94924834
      5.37000       1.0004083
      5.38000       1.0514189
      5.39000       1.1058400
      5.40000       1.1662770
      5.41000       1.2333572
      5.42000       1.3050479
      5.43000       1.3764680
      5.44000       1.4402381
      5.45000       1.4872898
      5.46000       1.5081190
      5.47000       1.4941768
      5.48000       1.4392325
      5.49000       1.3404807
      5.50000       1.1992122
      5.51000       1.0208968
      5.52000      0.81467949
      5.53000      0.59239013
      5.54000      0.36707457
      5.55000      0.15148537
      5.56000    -0.043495696
      5.57000     -0.21000914
      5.58000     -0.34403407
      5.59000     -0.44547086
      5.60000     -0.51776846
      5.61000     -0.56691939
      5.62000     -0.60017247
      5.63000     -0.62453616
      5.64000     -0.64543432
      5.65000     -0.66561699
      5.66000     -0.68457072
      5.67000     -0.69851994
      5.68000     -0.70091669
      5.69000     -0.68351479
      5.70000     -0.63767144
      5.71000     -0.55580676
      5.72000     -0.43274043
      5.73000     -0.26669940
      5.74000    -0.059940003
      5.75000      0.18126785
      5.76000      0.44702200
      5.77000      0.72475777
      5.78000       1.0003560
      5.79000       1.2595156
      5.80000       1.4889098
      5.81000       1.6772810
      5.82000       1.8160652
      5.83000       1.8997932
      5.84000       1.9259942
      5.85000       1.8949075
      5.86000       1.8089312
      5.87000       1.6720051
      5.88000       1.4890503
      5.89000       1.2654176
      5.90000       1.0066032
      5.91000      0.71807599
      5.92000      0.40520020
      5.93000     0.073441513
      5.94000     -0.27164409
      5.95000     -0.62411830
      5.96000     -0.97774948
      5.97000      -1.3258525
      5.98000      -1.6615434
      5.99000      -1.9777611
      6.00000      -2.2676307
      6.01000      -2.5245662
      6.02000      -2.7426901
      6.03000      -2.9169270
      6.04000      -3.0432655
      6.05000      -3.1188819
      6.06000      -3.1422445
      6.07000      -3.1131510
      6.08000      -3.0327904
      6.09000      -2.9036919
      6.10000      -2.7296719
      6.11000      -2.5157837
      6.12000      -2.2680930
      6.13000      -1.9936464
      6.14000      -1.7001217
      6.15000      -1.3957599
      6.16000      -1.0890175
      6.17000     -0.78831577
      6.18000     -0.50188929
      6.19000     -0.23742017
      6.20000   -0.0019117336
      6.21000      0.19865439
      6.22000      0.35945929
      6.23000      0.47716984
      6.24000      0.55008207
      6.25000      0.57833687
      6.26000      0.56403112
      6.27000      0.51123517
      6.28000      0.42588563
      6.29000      0.31552062
      6.30000      0.18891517
      6.31000     0.055492425
      6.32000    -0.075222240
      6.33000     -0.19432199
      6.34000     -0.29403060
      6.35000     -0.36823847
      6.36000     -0.41274071
      6.37000     -0.42533342
      6.38000     -0.40564794
      6.39000     -0.35480682
      6.40000     -0.27500109
      6.41000     -0.16897167
      6.42000    -0.039636764
      6.43000      0.11015798
      6.44000      0.27775978
      6.45000      0.46047947
      6.46000      0.65533441
      6.47000      0.85857140
      6.48000       1.0652937
      6.49000       1.2691088
      6.50000       1.4621049
      6.51000       1.6350071
      6.52000       1.7777136
      6.53000       1.8800162
      6.54000       1.9325994
      6.55000       1.9279736
      6.56000       1.8614257
      6.57000       1.7316922
      6.58000       1.5413191
      6.59000       1.2966904
      6.60000       1.0075741
      6.61000      0.68652785
      6.62000      0.34786881
      6.63000    0.0067894698
      6.64000     -0.32174942
      6.65000     -0.62371766
      6.66000     -0.88678027
      6.67000      -1.1005891
      6.68000      -1.2570210
      6.69000      -1.3502192
      6.70000      -1.3764932
      6.71000      -1.3342803
      6.72000      -1.2240977
      6.73000      -1.0485696
      6.74000     -0.81252717
      6.75000     -0.52302224
      6.76000     -0.18944683
      6.77000      0.17673369
      6.78000      0.56214874
      6.79000      0.95222167
      6.80000       1.3317721
      6.81000       1.6860477
      6.82000       2.0015544
      6.83000       2.2670683
      6.84000       2.4742041
      6.85000       2.6179566
      6.86000       2.6966668
      6.87000       2.7117512
      6.88000       2.6670835
      6.89000       2.5681447
      6.90000       2.4210212
      6.91000       2.2315453
      6.92000       2.0045618
      6.93000       1.7435250
      6.94000       1.4504145
      6.95000       1.1260984
      6.96000      0.77087020
      6.97000      0.38537905
      6.98000    -0.028625876
      6.99000     -0.46739823
      7.00000     -0.92482553
      7.01000      -1.3920906
      7.02000      -1.8580857
      7.03000      -2.3098882
      7.04000      -2.7338656
      7.05000      -3.1167053
      7.06000      -3.4467066
      7.07000      -3.7147127
      7.08000      -3.9150013
      7.09000      -4.0454668
      7.10000      -4.1076159
      7.11000      -4.1059600
      7.12000      -4.0470127
      7.13000      -3.9382230
      7.14000      -3.7866923
      7.15000      -3.5981987
      7.16000      -3.3763811
      7.17000      -3.1225364
      7.18000      -2.8357320
      7.19000      -2.5135265
      7.20000      -2.1530099
      7.21000      -1.7519504
      7.22000      -1.3101712
      7.23000     -0.83040950
      7.24000     -0.31914443
      7.25000      0.21342589
      7.26000      0.75357593
      7.27000       1.2851327
      7.28000       1.7905131
      7.29000       2.2523831
      7.30000       2.6549054
      7.31000       2.9851504
      7.32000       3.2338181
      7.33000       3.3958478
      7.34000       3.4702115
      7.35000       3.4595924
      7.36000       3.3695914
      7.37000       3.2079730
      7.38000       2.9837860
      7.39000       2.7067670
      7.40000       2.3870032
      7.41000       2.0347410
      7.42000       1.6605779
      7.43000       1.2755776
      7.44000      0.89150471
      7.45000      0.52077919
      7.46000      0.17615521
      7.47000     -0.12974291
      7.48000     -0.38539804
      7.49000     -0.58130378
      7.50000     -0.71108605
      7.51000     -0.77227540
      7.52000     -0.76688906
      7.53000     -0.70145455
      7.54000     -0.58655694
      7.55000     -0.43588738
      7.56000     -0.26490476
      7.57000    -0.089321913
      7.58000     0.076469957
      7.59000      0.22063822
      7.60000      0.33493590
      7.61000      0.41504169
      7.62000      0.46055617
      7.63000      0.47441023
      7.64000      0.46205271
      7.65000      0.43040302
      7.66000      0.38687573
      7.67000      0.33860331
      7.68000      0.29187064
      7.69000      0.25198552
      7.70000      0.22332307
      7.71000      0.20965025
      7.72000      0.21445994
      7.73000      0.24122956
      7.74000      0.29354807
      7.75000      0.37493229
      7.76000      0.48838978
      7.77000      0.63586506
      7.78000      0.81750488
      7.79000       1.0311244
      7.80000       1.2717132
      7.81000       1.5314851
      7.82000       1.8000871
      7.83000       2.0654193
      7.84000       2.3145569
      7.85000       2.5350698
      7.86000       2.7161917
      7.87000       2.8499763
      7.88000       2.9320561
      7.89000       2.9620432
      7.90000       2.9434535
      7.91000       2.8831346
      7.92000       2.7904062
      7.93000       2.6758972
      7.94000       2.5503081
      7.95000       2.4232489
      7.96000       2.3022861
      7.97000       2.1923537
      7.98000       2.0954517
      7.99000       2.0107877
      8.00000       1.9352494
      8.01000       1.8640357
      8.02000       1.7914862
      8.03000       1.7118596
      8.04000       1.6200926
      8.05000       1.5122864
      8.06000       1.3860619
      8.07000       1.2405577
      8.08000       1.0763736
      8.09000      0.89527948
      8.10000      0.69982061
      8.11000      0.49289991
      8.12000      0.27756840
      8.13000     0.056728049
      8.14000     -0.16689823
      8.15000     -0.39081106
      8.16000     -0.61246144
      8.17000     -0.82918294
      8.18000      -1.0379575
      8.19000      -1.2354452
      8.20000      -1.4178668
      8.21000      -1.5813144
      8.22000      -1.7220121
      8.23000      -1.8366974
      8.24000      -1.9231326
      8.25000      -1.9803927
      8.26000      -2.0091575
      8.27000      -2.0117548
      8.28000      -1.9919850
      8.29000      -1.9547127
      8.30000      -1.9052184
      8.31000      -1.8485864
      8.32000      -1.7889248
      8.33000      -1.7288542
      8.34000      -1.6690963
      8.35000      -1.6084391
      8.36000      -1.5439211
      8.37000      -1.4714592
      8.38000      -1.3865528
      8.39000      -1.2851516
      8.40000      -1.1644995
      8.41000      -1.0238559
      8.42000     -0.86486152
      8.43000     -0.69168154
      8.44000     -0.51066124
      8.45000     -0.32988781
      8.46000     -0.15834555
      8.47000   -0.0050852152
      8.48000      0.12159976
      8.49000      0.21485091
      8.50000      0.26964367
      8.51000      0.28298174
      8.52000      0.25380442
      8.53000      0.18265894
      8.54000     0.071338350
      8.55000    -0.077547722
      8.56000     -0.26091647
      8.57000     -0.47544514
      8.58000     -0.71754201
      8.59000     -0.98326650
      8.60000      -1.2680683
      8.61000      -1.5666787
      8.62000      -1.8727245
      8.63000      -2.1787964
      8.64000      -2.4765268
      8.65000      -2.7570018
      8.66000      -3.0111318
      8.67000      -3.2303723
      8.68000      -3.4073224
      8.69000      -3.5365644
      8.70000      -3.6149457
      8.71000      -3.6420975
      8.72000      -3.6204990
      8.73000      -3.5553758
      8.74000      -3.4543103
      8.75000      -3.3266921
      8.76000      -3.1830180
      8.77000      -3.0340260
      8.78000      -2.8898338
      8.79000      -2.7591421
      8.80000      -2.6484840
      8.81000      -2.5616032
      8.82000      -2.4990834
      8.83000      -2.4582347
      8.84000      -2.4331932
      8.85000      -2.4154308
      8.86000      -2.3944105
      8.87000      -2.3585662
      8.88000      -2.2963989
      8.89000      -2.1976596
      8.90000      -2.0543800
      8.91000      -1.8618133
      8.92000      -1.6189991
      8.93000      -1.3290078
      8.94000     -0.99863266
      8.95000     -0.63796227
      8.96000     -0.25940638
      8.97000      0.12337284
      8.98000      0.49654146
      8.99000      0.84727018
      9.00000       1.1643088
      9.01000       1.4386794
      9.02000       1.6638086
      9.03000       1.8355375
      9.04000       1.9517645
      9.05000       2.0121499
      9.06000       2.0178154
      9.07000       1.9711700
      9.08000       1.8758993
      9.09000       1.7371404
      9.10000       1.5617460
      9.11000       1.3584928
      9.12000       1.1382569
      9.13000      0.91380658
      9.14000      0.69927696
      9.15000      0.50924456
      9.16000      0.35763316
      9.17000      0.25621776
      9.18000      0.21329628
      9.19000      0.23253258
      9.20000      0.31221983
      9.21000      0.44519672
      9.22000      0.61931955
      9.23000      0.81869990
      9.24000       1.0254497
      9.25000       1.2215484
      9.26000       1.3910073
      9.27000       1.5216099
      9.28000       1.6062569
      9.29000       1.6435349
      9.30000       1.6376273
      9.31000       1.5974963
      9.32000       1.5354698
      9.33000       1.4654764
      9.34000       1.4012655
      9.35000       1.3547212
      9.36000       1.3346292
      9.37000       1.3459865
      9.38000       1.3898928
      9.39000       1.4639842
      9.40000       1.5633063
      9.41000       1.6813579
      9.42000       1.8112003
      9.43000       1.9464051
      9.44000       2.0816934
      9.45000       2.2131187
      9.46000       2.3380487
      9.47000       2.4546920
      9.48000       2.5616341
      9.49000       2.6571925
      9.50000       2.7389966
      9.51000       2.8038263
      9.52000       2.8476325
      9.53000       2.8659839
      9.54000       2.8545806
      9.55000       2.8099465
      9.56000       2.7301991
      9.57000       2.6154617
      9.58000       2.4682523
      9.59000       2.2934068
      9.60000       2.0978096
      9.61000       1.8896628
      9.62000       1.6778216
      9.63000       1.4707795
      9.64000       1.2758886
      9.65000       1.0985257
      9.66000      0.94170624
      9.67000      0.80586462
      9.68000      0.68893781
      9.69000      0.58674646
      9.70000      0.49369429
      9.71000      0.40347754
      9.72000      0.30991372
      9.73000      0.20771090
      9.74000     0.093161046
      9.75000    -0.035461827
      9.76000     -0.17767384
      9.77000     -0.33080668
      9.78000     -0.49038036
      9.79000     -0.65051853
      9.80000     -0.80463100
      9.81000     -0.94610602
      9.82000      -1.0690990
      9.83000      -1.1690068
      9.84000      -1.2430051
      9.85000      -1.2902436
      9.86000      -1.3118398
      9.87000      -1.3106209
      9.88000      -1.2906639
      9.89000      -1.2567303
      9.90000      -1.2135814
      9.91000      -1.1653989
      9.92000      -1.1152658
      9.93000      -1.0648736
      9.94000      -1.0144284
      9.95000     -0.96288642
      9.96000     -0.90830275
      9.97000     -0.84838071
      9.98000     -0.78112825
      9.99000     -0.70541462
      10.0000     -0.62143666
      10.0100     -0.53096182
      10.0200     -0.43730215
      10.0300     -0.34502484
      10.0400     -0.25945131
      10.0500     -0.18595066
      10.0600     -0.12920918
      10.0700    -0.092532789
      10.0800    -0.077348872
      10.0900    -0.082877523
      10.1000     -0.10621540
      10.1100     -0.14262480
      10.1200     -0.18613460
      10.1300     -0.23029836
      10.1400     -0.26902298
      10.1500     -0.29732716
      10.1600     -0.31191460
      10.1700     -0.31150425
      10.1800     -0.29681395
      10.1900     -0.27026881
      10.2000     -0.23542646
      10.2100     -0.19626985
      10.2200     -0.15645027
      10.2300     -0.11860887
      10.2400    -0.083980361
      10.2500    -0.052206577
      10.2600    -0.021564163
      10.2700     0.010578523
      10.2800     0.047031526
      10.2900     0.089935683
      10.3000      0.13998078
      10.3100      0.19578991
      10.3200      0.25365449
      10.3300      0.30756748
      10.3400      0.34974811
      10.3500      0.37147587
      10.3600      0.36419201
      10.3700      0.32071374
      10.3800      0.23629116
      10.3900      0.10952156
      10.4000    -0.057264461
      10.4100     -0.25796455
      10.4200     -0.48324887
      10.4300     -0.72150402
      10.4400     -0.96011753
      10.4500      -1.1867996
      10.4600      -1.3909252
      10.4700      -1.5645419
      10.4800      -1.7031289
      10.4900      -1.8056019
      10.5000      -1.8741082
      10.5100      -1.9132315
      10.5200      -1.9290128
      10.5300      -1.9277960
      10.5400      -1.9151812
      10.5500      -1.8952998
      10.5600      -1.8703051
      10.5700      -1.8404516
      10.5800      -1.8044024
      10.5900      -1.7599152
      10.6000      -1.7046712
      10.6100      -1.6369504
      10.6200      -1.5563345
      10.6300      -1.4638647
      10.6400      -1.3620379
      10.6500      -1.2543012
      10.6600      -1.1444169
      10.6700      -1.0356109
      10.6800     -0.92989429
      10.6900     -0.82744962
      10.7000     -0.72653899
      10.7100     -0.62369888
      10.7200     -0.51440010
      10.7300     -0.39394535
      10.7400     -0.25863068
      10.7500     -0.10675321
      10.7600     0.060540024
      10.7700      0.23886847
      10.7800      0.42075750
      10.7900      0.59617259
      10.8000      0.75366034
      10.8100      0.88179945
      10.8200      0.97067482
      10.8300       1.0132930
      10.8400       1.0066825
      10.8500      0.95247917
      10.8600      0.85690180
      10.8700      0.73015829
      10.8800      0.58535457
      10.8900      0.43699304
      10.9000      0.29935165
      10.9100      0.18496965
      10.9200      0.10337262
      10.9300     0.060203912
      10.9400     0.056936158
      10.9500     0.091080998
      10.9600      0.15684202
      10.9700      0.24611382
      10.9800      0.34970523
      10.9900      0.45846336
      11.0000      0.56427927
      11.0100      0.66084262
      11.0200      0.74401239
      11.0300      0.81182334
      11.0400      0.86416068
      11.0500      0.90219842
      11.0600      0.92771998
      11.0700      0.94240664
      11.0800      0.94721973
      11.0900      0.94194135
      11.1000      0.92498902
      11.1100      0.89348659
      11.1200      0.84354391
      11.1300      0.77079293
      11.1400      0.67104559
      11.1500      0.54095775
      11.1600      0.37880908
      11.1700      0.18496188
      11.1800    -0.037639932
      11.1900     -0.28347513
      11.2000     -0.54443951
      11.2100     -0.81032811
      11.2200      -1.0694758
      11.2300      -1.3096943
      11.2400      -1.5190770
      11.2500      -1.6870812
      11.2600      -1.8053313
      11.2700      -1.8683391
      11.2800      -1.8737967
      11.2900      -1.8226727
      11.3000      -1.7189224
      11.3100      -1.5689108
      11.3200      -1.3805376
      11.3300      -1.1624305
      11.3400     -0.92294244
      11.3500     -0.66944616
      11.3600     -0.40763240
      11.3700     -0.14144886
      11.3800      0.12701267
      11.3900      0.39711991
      11.4000      0.66926541
      11.4100      0.94409711
      11.4200       1.2220031
      11.4300       1.5025200
      11.4400       1.7841500
      11.4500       2.0640936
      11.4600       2.3385594
      11.4700       2.6030396
      11.4800       2.8528973
      11.4900       3.0837704
      11.5000       3.2920477
      11.5100       3.4752276
      11.5200       3.6320169
      11.5300       3.7621717
      11.5400       3.8662696
      11.5500       3.9452978
      11.5600       4.0001384
      11.5700       4.0312434
      11.5800       4.0382178
      11.5900       4.0196957
      11.6000       3.9734516
      11.6100       3.8965166
      11.6200       3.7857171
      11.6300       3.6380640
      11.6400       3.4513548
      11.6500       3.2245557
      11.6600       2.9583003
      11.6700       2.6550466
      11.6800       2.3190979
      11.6900       1.9564071
      11.7000       1.5743902
      11.7100       1.1813228
      11.7200      0.78590844
      11.7300      0.39648803
      11.7400     0.020776244
      11.7500     -0.33480760
      11.7600     -0.66539058
      11.7700     -0.96793916
      11.7800      -1.2410683
      11.7900      -1.4849983
      11.8000      -1.7011984
      11.8100      -1.8918849
      11.8200      -2.0596389
      11.8300      -2.2067992
      11.8400      -2.3350748
      11.8500      -2.4453055
      11.8600      -2.5373718
      11.8700      -2.6102296
      11.8800      -2.6622641
      11.8900      -2.6916196
      11.9000      -2.6967986
      11.9100      -2.6769762
      11.9200      -2.6325288
      11.9300      -2.5651171
      11.9400      -2.4776726
      11.9500      -2.3742295
      11.9600      -2.2594398
      11.9700      -2.1380497
      11.9800      -2.0142775
      11.9900      -1.8914205
      12.0000      -1.7714880
      12.0100      -1.6551479
      12.0200      -1.5418848
      12.0300      -1.4304662
      12.0400      -1.3195297
      12.0500      -1.2081882
      12.0600      -1.0966446
      12.0700     -0.98650953
      12.0800     -0.88094975
      12.0900     -0.78450281
      12.1000     -0.70248821
      12.1100     -0.64028208
      12.1200     -0.60250346
      12.1300     -0.59216060
      12.1400     -0.61002074
      12.1500     -0.65426661
      12.1600     -0.72054528
      12.1700     -0.80241053
      12.1800     -0.89204985
      12.1900     -0.98130486
      12.2000      -1.0626675
      12.2100      -1.1302646
      12.2200      -1.1805612
      12.2300      -1.2127050
      12.2400      -1.2284437
      12.2500      -1.2316833
      12.2600      -1.2276961
      12.2700      -1.2221327
      12.2800      -1.2200618
      12.2900      -1.2249993
      12.3000      -1.2383457
      12.3100      -1.2590763
      12.3200      -1.2838524
      12.3300      -1.3074456
      12.3400      -1.3234991
      12.3500      -1.3253639
      12.3600      -1.3070417
      12.3700      -1.2639403
      12.3800      -1.1934083
      12.3900      -1.0950912
      12.4000     -0.97078981
      12.4100     -0.82423443
      12.4200     -0.66053896
      12.4300     -0.48555174
      12.4400     -0.30513528
      12.4500     -0.12469623
      12.4600     0.051339516
      12.4700      0.21971621
      12.4800      0.37844962
      12.4900      0.52656761
      12.5000      0.66390565
      12.5100      0.79070506
      12.5200      0.90727125
      12.5300       1.0136306
      12.5400       1.1093564
      12.5500       1.1935052
      12.5600       1.2646960
      12.5700       1.3213530
      12.5800       1.3619618
      12.5900       1.3854078
      12.6000       1.3913159
      12.6100       1.3802673
      12.6200       1.3538950
      12.6300       1.3149123
      12.6400       1.2668625
      12.6500       1.2138344
      12.6600       1.1599819
      12.6700       1.1090787
      12.6800       1.0640134
      12.6900       1.0263296
      12.7000      0.99598755
      12.7100      0.97119576
      12.7200      0.94848405
      12.7300      0.92295737
      12.7400      0.88875121
      12.7500      0.83960832
      12.7600      0.76955558
      12.7700      0.67349807
      12.7800      0.54790450
      12.7900      0.39126600
      12.8000      0.20440284
      12.8100   -0.0094876172
      12.8200     -0.24488098
      12.8300     -0.49428943
      12.8400     -0.74883339
      12.8500     -0.99878294
      12.8600      -1.2344544
      12.8700      -1.4467444
      12.8800      -1.6278916
      12.8900      -1.7719545
      12.9000      -1.8752303
      12.9100      -1.9362548
      12.9200      -1.9557709
      12.9300      -1.9364104
      12.9400      -1.8821888
      12.9500      -1.7979420
      12.9600      -1.6886350
      12.9700      -1.5588406
      12.9800      -1.4122071
      12.9900      -1.2512747
      13.0000      -1.0773905
      13.0100     -0.89096031
      13.0200     -0.69179301
      13.0300     -0.47976423
      13.0400     -0.25540560
      13.0500    -0.020475016
      13.0600      0.22169150
      13.0700      0.46590560
      13.0800      0.70533659
      13.0900      0.93194977
      13.1000       1.1371992
      13.1100       1.3129926
      13.1200       1.4525293
      13.1300       1.5512344
      13.1400       1.6073602
      13.1500       1.6223409
      13.1600       1.6006837
      13.1700       1.5495361
      13.1800       1.4779221
      13.1900       1.3957325
      13.2000       1.3126903
      13.2100       1.2373528
      13.2200       1.1763625
      13.2300       1.1339481
      13.2400       1.1118753
      13.2500       1.1096222
      13.2600       1.1248569
      13.2700       1.1541258
      13.2800       1.1934894
      13.2900       1.2391269
      13.3000       1.2877540
      13.3100       1.3368543
      13.3200       1.3846644
      13.3300       1.4300077
      13.3400       1.4721101
      13.3500       1.5103396
      13.3600       1.5440803
      13.3700       1.5727167
      13.3800       1.5957587
      13.3900       1.6129848
      13.4000       1.6247991
      13.4100       1.6321677
      13.4200       1.6368196
      13.4300       1.6409514
      13.4400       1.6468361
      13.4500       1.6563082
      13.4600       1.6701231
      13.4700       1.6874480
      13.4800       1.7054824
      13.4900       1.7194055
      13.5000       1.7227399
      13.5100       1.7079888
      13.5200       1.6676325
      13.5300       1.5952152
      13.5400       1.4864769
      13.5500       1.3402232
      13.5600       1.1587780
      13.5700      0.94807102
      13.5800      0.71706389
      13.5900      0.47684749
      13.6000      0.23927197
      13.6100     0.015451931
      13.6200     -0.18544513
      13.6300     -0.35737920
      13.6400     -0.49795875
      13.6500     -0.60856152
      13.6600     -0.69373203
      13.6700     -0.76026205
      13.6800     -0.81592692
      13.6900     -0.86815703
      13.7000     -0.92279088
      13.7100     -0.98322551
      13.7200      -1.0499430
      13.7300      -1.1206200
      13.7400      -1.1905990
      13.7500      -1.2537400
      13.7600      -1.3034865
      13.7700      -1.3338820
      13.7800      -1.3404472
      13.7900      -1.3207103
      13.8000      -1.2744223
      13.8100      -1.2033878
      13.8200      -1.1110218
      13.8300      -1.0016641
      13.8400     -0.87998389
      13.8500     -0.75032088
      13.8600     -0.61629245
      13.8700     -0.48072371
      13.8800     -0.34569717
      13.8900     -0.21290220
      13.9000    -0.084003781
      13.9100     0.038822497
      13.9200      0.15263733
      13.9300      0.25355693
      13.9400      0.33689556
      13.9500      0.39743042
      13.9600      0.43000804
      13.9700      0.43016046
      13.9800      0.39483860
      13.9900      0.32297632
      14.0000      0.21594323
      14.0100     0.077712818
      14.0200    -0.085267633
      14.0300     -0.26445866
      14.0400     -0.44988684
      14.0500     -0.63096031
      14.0600     -0.79748215
      14.0700     -0.94044534
      14.0800      -1.0529475
      14.0900      -1.1307487
      14.1000      -1.1726975
      14.1100      -1.1807262
      14.1200      -1.1596026
      14.1300      -1.1164258
      14.1400      -1.0598423
      14.1500     -0.99905445
      14.1600     -0.94293528
      14.1700     -0.89903447
      14.1800     -0.87288332
      14.1900     -0.86741611
      14.2000     -0.88289345
      14.2100     -0.91697832
      14.2200     -0.96525337
      14.2300      -1.0219701
      14.2400      -1.0809562
      14.2500      -1.1364425
      14.2600      -1.1839371
      14.2700      -1.2207773
      14.2800      -1.2463051
      14.2900      -1.2618121
      14.3000      -1.2699857
      14.3100      -1.2742380
      14.3200      -1.2777976
      14.3300      -1.2828434
      14.3400      -1.2898502
      14.3500      -1.2972128
      14.3600      -1.3012413
      14.3700      -1.2965729
      14.3800      -1.2770208
      14.3900      -1.2365042
      14.4000      -1.1701441
      14.4100      -1.0752769
      14.4200     -0.95204662
      14.4300     -0.80374356
      14.4400     -0.63645114
      14.4500     -0.45845343
      14.4600     -0.27917839
      14.4700     -0.10795531
      14.4800     0.047319350
      14.4900      0.18100484
      14.5000      0.29050551
      14.5100      0.37631440
      14.5200      0.44177728
      14.5300      0.49212191
      14.5400      0.53344989
      14.5500      0.57151523
      14.5600      0.61061891
      14.5700      0.65279037
      14.5800      0.69746447
      14.5900      0.74159780
      14.6000      0.78031737
      14.6100      0.80779359
      14.6200      0.81852371
      14.6300      0.80827343
      14.6400      0.77507167
      14.6500      0.71962392
      14.6600      0.64535337
      14.6700      0.55795852
      14.6800      0.46454931
      14.6900      0.37258090
      14.7000      0.28879790
      14.7100      0.21823538
      14.7200      0.16363026
      14.7300      0.12514892
      14.7400      0.10068893
      14.7500     0.086435536
      14.7600     0.077699359
      14.7700     0.069861862
      14.7800     0.059256930
      14.7900     0.043705296
      14.8000     0.022788192
      14.8100   -0.0021891099
      14.8200    -0.028746648
      14.8300    -0.053832174
      14.8400    -0.074576985
      14.8500    -0.088979135
      14.8600    -0.096376063
      14.8700    -0.097637807
      14.8800    -0.094969794
      14.8900    -0.091548931
      14.9000    -0.090818736
      14.9100    -0.095819361
      14.9200     -0.10852554
      14.9300     -0.12937889
      14.9400     -0.15709234
      14.9500     -0.18873452
      14.9600     -0.22006922
      14.9700     -0.24613276
      14.9800     -0.26185998
      14.9900     -0.26271469
      15.0000     -0.24519609
      15.0100     -0.20715801
      15.0200     -0.14788307
      15.0300    -0.068035591
      15.0400     0.030627186
      15.0500      0.14551595
      15.0600      0.27359459
      15.0700      0.41156239
      15.0800      0.55601148
      15.0900      0.70348342
      15.1000      0.85045910
      15.1100      0.99324315
      15.1200       1.1279835
      15.1300       1.2506922
      15.1400       1.3574009
      15.1500       1.4444865
      15.1600       1.5089125
      15.1700       1.5486304
      15.1800       1.5629269
      15.1900       1.5525524
      15.2000       1.5197960
      15.2100       1.4682763
      15.2200       1.4026806
      15.2300       1.3282038
      15.2400       1.2501267
      15.2500       1.1732016
      15.2600       1.1013567
      15.2700       1.0372642
      15.2800      0.98241125
      15.2900      0.93707845
      15.3000      0.90061489
      15.3100      0.87171431
      15.3200      0.84878274
      15.3300      0.83023356
      15.3400      0.81467947
      15.3500      0.80106587
      15.3600      0.78865089
      15.3700      0.77694391
      15.3800      0.76554100
      15.3900      0.75403183
      15.4000      0.74185937
      15.4100      0.72830130
      15.4200      0.71247674
      15.4300      0.69338002
      15.4400      0.67003798
      15.4500      0.64153767
      15.4600      0.60716560
      15.4700      0.56637966
      15.4800      0.51879192
      15.4900      0.46415104
      15.5000      0.40219923
      15.5100      0.33264056
      15.5200      0.25501712
      15.5300      0.16874684
      15.5400     0.073127288
      15.5500    -0.032619006
      15.5600     -0.14925092
      15.5700     -0.27733356
      15.5800     -0.41715916
      15.5900     -0.56860364
      15.6000     -0.73104228
      15.6100     -0.90316162
      15.6200      -1.0829246
      15.6300      -1.2673949
      15.6400      -1.4527462
      15.6500      -1.6342457
      15.6600      -1.8061929
      15.6700      -1.9622302
      15.6800      -2.0955864
      15.6900      -2.1996422
      15.7000      -2.2684034
      15.7100      -2.2973328
      15.7200      -2.2839568
      15.7300      -2.2284928
      15.7400      -2.1341789
      15.7500      -2.0073592
      15.7600      -1.8571647
      15.7700      -1.6946518
      15.7800      -1.5318799
      15.7900      -1.3805270
      15.8000      -1.2505486
      15.8100      -1.1489168
      15.8200      -1.0788244
      15.8300      -1.0392449
      15.8400      -1.0251609
      15.8500      -1.0283408
      15.8600      -1.0386822
      15.8700      -1.0457386
      15.8800      -1.0404229
      15.8900      -1.0164646
      15.9000     -0.97142114
      15.9100     -0.90709798
      15.9200     -0.82924948
      15.9300     -0.74664382
      15.9400     -0.66957335
      15.9500     -0.60817967
      15.9600     -0.57067915
      15.9700     -0.56197339
      15.9800     -0.58274635
      15.9900     -0.62925091
      16.0000     -0.69386868
      16.0100     -0.76621593
      16.0200     -0.83473539
      16.0300     -0.88845744
      16.0400     -0.91862686
      16.0500     -0.91989770
      16.0600     -0.89106288
      16.0700     -0.83492408
      16.0800     -0.75771040
      16.0900     -0.66781439
      16.1000     -0.57435333
      16.1100     -0.48562531
      16.1200     -0.40780692
      16.1300     -0.34414274
      16.1400     -0.29465843
      16.1500     -0.25645118
      16.1600     -0.22448752
      16.1700     -0.19279603
      16.1800     -0.15570160
      16.1900     -0.10901407
      16.2000    -0.050908284
      16.2100     0.017833595
      16.2200     0.093727399
      16.2300      0.17130101
      16.2400      0.24399947
      16.2500      0.30527557
      16.2600      0.34968002
      16.2700      0.37376132
      16.2800      0.37652342
      16.2900      0.35963696
      16.3000      0.32702517
      16.3100      0.28418557
      16.3200      0.23737864
      16.3300      0.19258820
      16.3400      0.15469025
      16.3500      0.12682729
      16.3600      0.11010031
      16.3700      0.10361647
      16.3800      0.10483250
      16.3900      0.11021737
      16.4000      0.11585810
      16.4100      0.11829201
      16.4200      0.11499166
      16.4300      0.10480904
      16.4400     0.088035626
      16.4500     0.066301321
      16.4600     0.042209755
      16.4700     0.018944429
      16.4800  -0.00028455972
      16.4900    -0.012607593
      16.5000    -0.015768838
      16.5100   -0.0082245027
      16.5200     0.010963417
      16.5300     0.042293040
      16.5400     0.086202888
      16.5500      0.14322582
      16.5600      0.21431160
      16.5700      0.30070937
      16.5800      0.40390434
      16.5900      0.52524644
      16.6000      0.66550605
      16.6100      0.82434014
      16.6200       1.0000405
      16.6300       1.1890530
      16.6400       1.3861195
      16.6500       1.5845511
      16.6600       1.7767292
      16.6700       1.9549633
      16.6800       2.1122997
      16.6900       2.2434433
      16.7000       2.3453741
      16.7100       2.4178391
      16.7200       2.4632474
      16.7300       2.4863639
      16.7400       2.4935274
      16.7500       2.4916573
      16.7600       2.4871871
      16.7700       2.4849300
      16.7800       2.4874470
      16.7900       2.4945213
      16.8000       2.5032665
      16.8100       2.5086244
      16.8200       2.5042057
      16.8300       2.4834181
      16.8400       2.4406402
      16.8500       2.3721945
      16.8600       2.2771335
      16.8700       2.1574255
      16.8800       2.0179091
      16.8900       1.8655961
      16.9000       1.7088632
      16.9100       1.5562921
      16.9200       1.4157047
      16.9300       1.2932696
      16.9400       1.1929489
      16.9500       1.1163731
      16.9600       1.0629716
      16.9700       1.0305359
      16.9800       1.0158151
      16.9900       1.0152561
      17.0000       1.0254837
      17.0100       1.0437493
      17.0200       1.0679749
      17.0300       1.0966470
      17.0400       1.1285381
      17.0500       1.1623239
      17.0600       1.1962947
      17.0700       1.2282519
      17.0800       1.2555352
      17.0900       1.2753580
      17.1000       1.2852231
      17.1100       1.2834328
      17.1200       1.2694994
      17.1300       1.2443955
      17.1400       1.2104475
      17.1500       1.1710218
      17.1600       1.1298311
      17.1700       1.0901236
      17.1800       1.0538287
      17.1900       1.0208501
      17.2000      0.98860054
      17.2100      0.95206513
      17.2200      0.90422206
      17.2300      0.83686178
      17.2400      0.74182047
      17.2500      0.61219931
      17.2600      0.44355802
      17.2700      0.23482979
      17.2800    -0.011134138
      17.2900     -0.28790198
      17.3000     -0.58571716
      17.3100     -0.89272537
      17.3200      -1.1962729
      17.3300      -1.4842525
      17.3400      -1.7464514
      17.3500      -1.9754404
      17.3600      -2.1671048
      17.3700      -2.3208483
      17.3800      -2.4389056
      17.3900      -2.5258265
      17.4000      -2.5874467
      17.4100      -2.6298751
      17.4200      -2.6586549
      17.4300      -2.6781764
      17.4400      -2.6913168
      17.4500      -2.6994404
      17.4600      -2.7027152
      17.4700      -2.7004904
      17.4800      -2.6918106
      17.4900      -2.6758777
      17.5000      -2.6523476
      17.5100      -2.6215428
      17.5200      -2.5843182
      17.5300      -2.5420380
      17.5400      -2.4961793
      17.5500      -2.4481797
      17.5600      -2.3991194
      17.5700      -2.3496541
      17.5800      -2.2999663
      17.5900      -2.2498704
      17.6000      -2.1989958
      17.6100      -2.1469383
      17.6200      -2.0935250
      17.6300      -2.0389033
      17.6400      -1.9835698
      17.6500      -1.9283508
      17.6600      -1.8742352
      17.6700      -1.8221492
      17.6800      -1.7727259
      17.6900      -1.7261305
      17.7000      -1.6818036
      17.7100      -1.6384031
      17.7200      -1.5938485
      17.7300      -1.5453436
      17.7400      -1.4896253
      17.7500      -1.4231788
      17.7600      -1.3426277
      17.7700      -1.2450479
      17.7800      -1.1283630
      17.7900     -0.99154718
      17.8000     -0.83508767
      17.8100     -0.66097063
      17.8200     -0.47278869
      17.8300     -0.27561166
      17.8400    -0.075704594
      17.8500      0.11987227
      17.8600      0.30378406
      17.8700      0.46915262
      17.8800      0.60994531
      17.8900      0.72165909
      17.9000      0.80176360
      17.9100      0.84986181
      17.9200      0.86768064
      17.9300      0.85887474
      17.9400      0.82850373
      17.9500      0.78245514
      17.9600      0.72663322
      17.9700      0.66639080
      17.9800      0.60577489
      17.9900      0.54719201
      18.0000      0.49119386
      18.0100      0.43652486
      18.0200      0.38046892
      18.0300      0.31933612
      18.0400      0.24909653
      18.0500      0.16610639
      18.0600     0.067708527
      18.0700    -0.047322825
      18.0800     -0.17835891
      18.0900     -0.32295280
      18.1000     -0.47685950
      18.1100     -0.63441331
      18.1200     -0.78908449
      18.1300     -0.93395606
      18.1400      -1.0623764
      18.1500      -1.1686388
      18.1600      -1.2484263
      18.1700      -1.2992518
      18.1800      -1.3207676
      18.1900      -1.3147869
      18.2000      -1.2852657
      18.2100      -1.2379571
      18.2200      -1.1800733
      18.2300      -1.1196708
      18.2400      -1.0650136
      18.2500      -1.0238318
      18.2600      -1.0026858
      18.2700      -1.0062678
      18.2800      -1.0369750
      18.2900      -1.0946055
      18.3000      -1.1763031
      18.3100      -1.2767300
      18.3200      -1.3885613
      18.3300      -1.5030797
      18.3400      -1.6109702
      18.3500      -1.7031952
      18.3600      -1.7717535
      18.3700      -1.8104276
      18.3800      -1.8151985
      18.3900      -1.7845532
      18.4000      -1.7194314
      18.4100      -1.6229017
      18.4200      -1.4996931
      18.4300      -1.3555487
      18.4400      -1.1964282
      18.4500      -1.0278830
      18.4600     -0.85432458
      18.4700     -0.67879730
      18.4800     -0.50258906
      18.4900     -0.32535356
      18.5000     -0.14534417
      18.5100     0.040175145
      18.5200      0.23432428
      18.5300      0.43987343
      18.5400      0.65886280
      18.5500      0.89173352
      18.5600       1.1371856
      18.5700       1.3918944
      18.5800       1.6506333
      18.5900       1.9065656
      18.6000       2.1517701
      18.6100       2.3779188
      18.6200       2.5772144
      18.6300       2.7429565
      18.6400       2.8703625
      18.6500       2.9571270
      18.6600       3.0036011
      18.6700       3.0128745
      18.6800       2.9903476
      18.6900       2.9432754
      18.7000       2.8798936
      18.7100       2.8085777
      18.7200       2.7370090
      18.7300       2.6713863
      18.7400       2.6159731
      18.7500       2.5727964
      18.7600       2.5417652
      18.7700       2.5209776
      18.7800       2.5073617
      18.7900       2.4973479
      18.8000       2.4876346
      18.8100       2.4758072
      18.8200       2.4608522
      18.8300       2.4433828
      18.8400       2.4255214
      18.8500       2.4107425
      18.8600       2.4033194
      18.8700       2.4077452
      18.8800       2.4281216
      18.8900       2.4676222
      18.9000       2.5280769
      18.9100       2.6097161
      18.9200       2.7111568
      18.9300       2.8295364
      18.9400       2.9607185
      18.9500       3.0998112
      18.9600       3.2413094
      18.9700       3.3796126
      18.9800       3.5091643
      18.9900       3.6247899
      19.0000       3.7216759
      19.0100       3.7955403
      19.0200       3.8425450
      19.0300       3.8593504
      19.0400       3.8431478
      19.0500       3.7916005
      19.0600       3.7029864
      19.0700       3.5762119
      19.0800       3.4109818
      19.0900       3.2078053
      19.1000       2.9680140
      19.1100       2.6939579
      19.1200       2.3886245
      19.1300       2.0560008
      19.1400       1.7006180
      19.1500       1.3275758
      19.1600      0.94231182
      19.1700      0.55038088
      19.1800      0.15722702
      19.1900     -0.23194704
      19.2000     -0.61269028
      19.2100     -0.98108431
      19.2200      -1.3341866
      19.2300      -1.6700012
      19.2400      -1.9875167
      19.2500      -2.2865752
      19.2600      -2.5677103
      19.2700      -2.8317840
      19.2800      -3.0797166
      19.2900      -3.3121676
      19.3000      -3.5291182
      19.3100      -3.7297047
      19.3200      -3.9122586
      19.3300      -4.0742421
      19.3400      -4.2126758
      19.3500      -4.3244802
      19.3600      -4.4070083
      19.3700      -4.4586270
      19.3800      -4.4790428
      19.3900      -4.4697575
      19.4000      -4.4340007
      19.4100      -4.3766999
      19.4200      -4.3040115
      19.4300      -4.2227046
      19.4400      -4.1395057
      19.4500      -4.0603164
      19.4600      -3.9895916
      19.4700      -3.9299008
      19.4800      -3.8816319
      19.4900      -3.8431731
      19.5000      -3.8112146
      19.5100      -3.7812520
      19.5200      -3.7483914
      19.5300      -3.7080375
      19.5400      -3.6564942
      19.5500      -3.5916016
      19.5600      -3.5128149
      19.5700      -3.4213415
      19.5800      -3.3197668
      19.5900      -3.2116900
      19.6000      -3.1011163
      19.6100      -2.9917870
      19.6200      -2.8865566
      19.6300      -2.7870439
      19.6400      -2.6932860
      19.6500      -2.6037229
      19.6600      -2.5153390
      19.6700      -2.4240357
      19.6800      -2.3251246
      19.6900      -2.2139733
      19.7000      -2.0864349
      19.7100      -1.9395758
      19.7200      -1.7720186
      19.7300      -1.5841091
      19.7400      -1.3780836
      19.7500      -1.1578956
      19.7600     -0.92879615
      19.7700     -0.69695230
      19.7800     -0.46882618
      19.7900     -0.25040688
      19.8000    -0.046831558
      19.8100      0.13826400
      19.8200      0.30298268
      19.8300      0.44737339
      19.8400      0.57324109
      19.8500      0.68378068
      19.8600      0.78304754
      19.8700      0.87532249
      19.8800      0.96433076
      19.8900       1.0526670
      19.9000       1.1412543
      19.9100       1.2291456
      19.9200       1.3135320
      19.9300       1.3900815
      19.9400       1.4534992
      19.9500       1.4983353
      19.9600       1.5197068
      19.9700       1.5141814
      19.9800       1.4802981
      19.9900       1.4189731
      20.0000       1.3335201
      20.0100       1.2293770
      20.0200       1.1135476
      20.0300      0.99383820
      20.0400      0.87794329
      20.0500      0.77278100
      20.0600      0.68371526
      20.0700      0.61417110
      20.0800      0.56549859
      20.0900      0.53714508
      20.1000      0.52704464
      20.1100      0.53218842
      20.1200      0.54927171
      20.1300      0.57528529
      20.1400      0.60796978
      20.1500      0.64610051
      20.1600      0.68953135
      20.1700      0.73903647
      20.1800      0.79600290
      20.1900      0.86200013
      20.2000      0.93844378
      20.2100       1.0261274
      20.2200       1.1250987
      20.2300       1.2345601
      20.2400       1.3529142
      20.2500       1.4779834
      20.2600       1.6072762
      20.2700       1.7382272
      20.2800       1.8684207
      20.2900       1.9958732
      20.3000       2.1188411
      20.3100       2.2360140
      20.3200       2.3462325
      20.3300       2.4484628
      20.3400       2.5416146
      20.3500       2.6244810
      20.3600       2.6957052
      20.3700       2.7539867
      20.3800       2.7981077
      20.3900       2.8271700
      20.4000       2.8408415
      20.4100       2.8394491
      20.4200       2.8241042
      20.4300       2.7966279
      20.4400       2.7595042
      20.4500       2.7155324
      20.4600       2.6676982
      20.4700       2.6188084
      20.4800       2.5712671
      20.4900       2.5268178
      20.5000       2.4865097
      20.5100       2.4506061
      20.5200       2.4186701
      20.5300       2.3897245
      20.5400       2.3623026
      20.5500       2.3346942
      20.5600       2.3050786
      20.5700       2.2715241
      20.5800       2.2321850
      20.5900       2.1852637
      20.6000       2.1290604
      20.6100       2.0620210
      20.6200       1.9828125
      20.6300       1.8904482
      20.6400       1.7843756
      20.6500       1.6646732
      20.6600       1.5321484
      20.6700       1.3883478
      20.6800       1.2356629
      20.6900       1.0771387
      20.7000      0.91621357
      20.7100      0.75656997
      20.7200      0.60169856
      20.7300      0.45460939
      20.7400      0.31748078
      20.7500      0.19152683
      20.7600     0.076930521
      20.7700    -0.027114800
      20.7800     -0.12212376
      20.7900     -0.21008358
      20.8000     -0.29301380
      20.8100     -0.37266221
      20.8200     -0.45015984
      20.8300     -0.52592839
      20.8400     -0.59952878
      20.8500     -0.66981096
      20.8600     -0.73512097
      20.8700     -0.79359187
      20.8800     -0.84338339
      20.8900     -0.88303117
      20.9000     -0.91163513
      20.9100     -0.92894059
      20.9200     -0.93537081
      20.9300     -0.93201706
      20.9400     -0.92042658
      20.9500     -0.90246694
      20.9600     -0.88027495
      20.9700     -0.85609731
      20.9800     -0.83229282
      20.9900     -0.81124515
      21.0000     -0.79545580
      21.0100     -0.78738712
      21.0200     -0.78945439
      21.0300     -0.80373398
      21.0400     -0.83186754
      21.0500     -0.87460171
      21.0600     -0.93157250
      21.0700      -1.0011391
      21.0800      -1.0802163
      21.0900      -1.1644410
      21.1000      -1.2485098
      21.1100      -1.3266535
      21.1200      -1.3934038
      21.1300      -1.4442144
      21.1400      -1.4761898
      21.1500      -1.4885593
      21.1600      -1.4829078
      21.1700      -1.4630344
      21.1800      -1.4345142
      21.1900      -1.4039691
      21.2000      -1.3780506
      21.2100      -1.3626044
      21.2200      -1.3616948
      21.2300      -1.3770809
      21.2400      -1.4079971
      21.2500      -1.4512987
      21.2600      -1.5021228
      21.2700      -1.5546928
      21.2800      -1.6033980
      21.2900      -1.6437315
      21.3000      -1.6730712
      21.3100      -1.6911158
      21.3200      -1.6998469
      21.3300      -1.7030927
      21.3400      -1.7057070
      21.3500      -1.7125528
      21.3600      -1.7275226
      21.3700      -1.7526203
      21.3800      -1.7874965
      21.3900      -1.8293307
      21.4000      -1.8732812
      21.4100      -1.9132669
      21.4200      -1.9430684
      21.4300      -1.9574504
      21.4400      -1.9531802
      21.4500      -1.9296792
      21.4600      -1.8892730
      21.4700      -1.8368742
      21.4800      -1.7792492
      21.4900      -1.7238335
      21.5000      -1.6775493
      21.5100      -1.6456058
      21.5200      -1.6306323
      21.5300      -1.6321874
      21.5400      -1.6468865
      21.5500      -1.6690525
      21.5600      -1.6916724
      21.5700      -1.7076589
      21.5800      -1.7111531
      21.5900      -1.6985225
      21.6000      -1.6690368
      21.6100      -1.6249335
      21.6200      -1.5710359
      21.6300      -1.5138462
      21.6400      -1.4603485
      21.6500      -1.4167037
      21.6600      -1.3871399
      21.6700      -1.3730283
      21.6800      -1.3726277
      21.6900      -1.3811991
      21.7000      -1.3917392
      21.7100      -1.3960664
      21.7200      -1.3860712
      21.7300      -1.3550073
      21.7400      -1.2985067
      21.7500      -1.2152299
      21.7600      -1.1070443
      21.7700     -0.97862693
      21.7800     -0.83673745
      21.7900     -0.68906547
      21.8000     -0.54318037
      21.8100     -0.40538389
      21.8200     -0.27985629
      21.8300     -0.16830015
      21.8400    -0.069860001
      21.8500     0.018399194
      21.8600      0.10081041
      21.8700      0.18216776
      21.8800      0.26681458
      21.8900      0.35778523
      21.9000      0.45633303
      21.9100      0.56166312
      21.9200      0.67107185
      21.9300      0.78035843
      21.9400      0.88447441
      21.9500      0.97826640
      21.9600       1.0570969
      21.9700       1.1174763
      21.9800       1.1573679
      21.9900       1.1763160
      22.0000       1.1753368
      22.0100       1.1566325
      22.0200       1.1231698
      22.0300       1.0783787
      22.0400       1.0256449
      22.0500      0.96824117
      22.0600      0.90910388
      22.0700      0.85096422
      22.0800      0.79631820
      22.0900      0.74770180
      22.1000      0.70769727
      22.1100      0.67908085
      22.1200      0.66462441
      22.1300      0.66708616
      22.1400      0.68881756
      22.1500      0.73152173
      22.1600      0.79601865
      22.1700      0.88194548
      22.1800      0.98773470
      22.1900       1.1105848
      22.2000       1.2467890
      22.2100       1.3918975
      22.2200       1.5411773
      22.2300       1.6900254
      22.2400       1.8342635
      22.2500       1.9703784
      22.2600       2.0957180
      22.2700       2.2083087
      22.2800       2.3069036
      22.2900       2.3905417
      22.3000       2.4584406
      22.3100       2.5097200
      22.3200       2.5432901
      22.3300       2.5578089
      22.3400       2.5518181
      22.3500       2.5239200
      22.3600       2.4730667
      22.3700       2.3988661
      22.3800       2.3017165
      22.3900       2.1830426
      22.4000       2.0452763
      22.4100       1.8917022
      22.4200       1.7262089
      22.4300       1.5530007
      22.4400       1.3763280
      22.4500       1.1999999
      22.4600       1.0274366
      22.4700      0.86139650
      22.4800      0.70410390
      22.4900      0.55731219
      22.5000      0.42256251
      22.5100      0.30126280
      22.5200      0.19491322
      22.5300      0.10501992
      22.5400     0.033057935
      22.5500    -0.019723648
      22.5600    -0.052709215
      22.5700    -0.066134566
      22.5800    -0.061392500
      22.5900    -0.041184285
      22.6000   -0.0094375284
      22.6100     0.028888565
      22.6200     0.068340283
      22.6300      0.10345144
      22.6400      0.12946832
      22.6500      0.14295258
      22.6600      0.14229185
      22.6700      0.12794130
      22.6800      0.10237113
      22.6900     0.069809819
      22.7000     0.035569681
      22.7100    0.0053516963
      22.7200    -0.015712591
      22.7300    -0.023848852
      22.7400    -0.017282494
      22.7500    0.0032989917
      22.7600     0.034805956
      22.7700     0.071906553
      22.7800      0.10773895
      22.7900      0.13469872
      22.8000      0.14541010
      22.8100      0.13358766
      22.8200     0.094881068
      22.8300     0.027326837
      22.8400    -0.068454817
      22.8500     -0.18943306
      22.8600     -0.33059635
      22.8700     -0.48582592
      22.8800     -0.64852977
      22.8900     -0.81257776
      22.9000     -0.97301857
      22.9100      -1.1264573
      22.9200      -1.2712615
      22.9300      -1.4074243
      22.9400      -1.5360149
      22.9500      -1.6587197
      22.9600      -1.7768796
      22.9700      -1.8909627
      22.9800      -1.9999423
      22.9900      -2.1010628
      23.0000      -2.1899145
      23.0100      -2.2607999
      23.0200      -2.3074578
      23.0300      -2.3239206
      23.0400      -2.3054345
      23.0500      -2.2493496
      23.0600      -2.1556776
      23.0700      -2.0273764
      23.0800      -1.8701568
      23.0900      -1.6918899
      23.1000      -1.5017587
      23.1100      -1.3090328
      23.1200      -1.1217909
      23.1300     -0.94607335
      23.1400     -0.78496724
      23.1500     -0.63838869
      23.1600     -0.50324377
      23.1700     -0.37407857
      23.1800     -0.24426751
      23.1900     -0.10722144
      23.2000     0.042341237
      23.2100      0.20718772
      23.2200      0.38690843
      23.2300      0.57779249
      23.2400      0.77312365
      23.2500      0.96421367
      23.2600       1.1415535
      23.2700       1.2963130
      23.2800       1.4218505
      23.2900       1.5144825
      23.3000       1.5743060
      23.3100       1.6050441
      23.3200       1.6134959
      23.3300       1.6083397
      23.3400       1.5987971
      23.3500       1.5930671
      23.3600       1.5971189
      23.3700       1.6136760
      23.3800       1.6419472
      23.3900       1.6778621
      23.4000       1.7148469
      23.4100       1.7450338
      23.4200       1.7606112
      23.4300       1.7551909
      23.4400       1.7247543
      23.4500       1.6683316
      23.4600       1.5879837
      23.4700       1.4883737
      23.4800       1.3759284
      23.4900       1.2576981
      23.5000       1.1402835
      23.5100       1.0288378
      23.5200      0.92651851
      23.5300      0.83417797
      23.5400      0.75063896
      23.5500      0.67319020
      23.5600      0.59831190
      23.5700      0.52239099
      23.5800      0.44249128
      23.5900      0.35658519
      23.6000      0.26388628
      23.6100      0.16461237
      23.6200     0.059641792
      23.6300    -0.049763374
      23.6400     -0.16240071
      23.6500     -0.27731107
      23.6600     -0.39380898
      23.6700     -0.51129937
      23.6800     -0.62897304
      23.6900     -0.74543307
      23.7000     -0.85850018
      23.7100     -0.96500288
      23.7200      -1.0609941
      23.7300      -1.1422379
      23.7400      -1.2047497
      23.7500      -1.2456101
      23.7600      -1.2635522
      23.7700      -1.2595266
      23.7800      -1.2367598
      23.7900      -1.2005629
      23.8000      -1.1577074
      23.8100      -1.1154228
      23.8200      -1.0803792
      23.8300      -1.0575780
      23.8400      -1.0495081
      23.8500      -1.0557248
      23.8600      -1.0727200
      23.8700      -1.0944767
      23.8800      -1.1132873
      23.8900      -1.1208295
      23.9000      -1.1093681
      23.9100      -1.0728228
      23.9200      -1.0075678
      23.9300     -0.91268437
      23.9400     -0.79010751
      23.9500     -0.64402030
      23.9600     -0.48027433
      23.9700     -0.30556845
      23.9800     -0.12652315
      23.9900     0.050839468
      24.0000      0.22165359
      24.0100      0.38225181
      24.0200      0.53017120
      24.0300      0.66398812
      24.0400      0.78287695
      24.0500      0.88648408
      24.0600      0.97473965
      24.0700       1.0477583
      24.0800       1.1060218
      24.0900       1.1504454
      24.1000       1.1824150
      24.1100       1.2039530
      24.1200       1.2174571
      24.1300       1.2254976
      24.1400       1.2304290
      24.1500       1.2339822
      24.1600       1.2369354
      24.1700       1.2388287
      24.1800       1.2380922
      24.1900       1.2322206
      24.2000       1.2183171
      24.2100       1.1936605
      24.2200       1.1563980
      24.2300       1.1060516
      24.2400       1.0437862
      24.2500      0.97245242
      24.2600      0.89621266
      24.2700      0.81990977
      24.2800      0.74823495
      24.2900      0.68501606
      24.3000      0.63243713
      24.3100      0.59062629
      24.3200      0.55763496
      24.3300      0.52969356
      24.3400      0.50193193
      24.3500      0.46918182
      24.3600      0.42688936
      24.3700      0.37187794
      24.3800      0.30292932
      24.3900      0.22080448
      24.4000      0.12813824
      24.4100     0.028742389
      24.4200    -0.073111767
      24.4300     -0.17354036
      24.4400     -0.26980919
      24.4500     -0.36085766
      24.4600     -0.44732888
      24.4700     -0.53136456
      24.4800     -0.61607168
      24.4900     -0.70474627
      24.5000     -0.79999795
      24.5100     -0.90303391
      24.5200      -1.0131475
      24.5300      -1.1276729
      24.5400      -1.2420530
      24.5500      -1.3504066
      24.5600      -1.4463450
      24.5700      -1.5238380
      24.5800      -1.5780241
      24.5900      -1.6058611
      24.6000      -1.6065654
      24.6100      -1.5816358
      24.6200      -1.5346618
      24.6300      -1.4708223
      24.6400      -1.3962108
      24.6500      -1.3171459
      24.6600      -1.2393629
      24.6700      -1.1675534
      24.6800      -1.1048016
      24.6900      -1.0524593
      24.7000      -1.0100016
      24.7100     -0.97532493
      24.7200     -0.94499810
      24.7300     -0.91469477
      24.7400     -0.87982638
      24.7500     -0.83610117
      24.7600     -0.78004306
      24.7700     -0.70962899
      24.7800     -0.62458329
      24.7900     -0.52667825
      24.8000     -0.41973670
      24.8100     -0.30932561
      24.8200     -0.20222198
      24.8300     -0.10575772
      24.8400    -0.026796407
      24.8500     0.029071466
      24.8600     0.058450814
      24.8700     0.060709473
      24.8800     0.038173898
      24.8900   -0.0039379679
      24.9000    -0.058209922
      24.9100     -0.11594048
      24.9200     -0.16836820
      24.9300     -0.20791191
      24.9400     -0.22933108
      24.9500     -0.23054894
      24.9600     -0.21295949
      24.9700     -0.18126497
      24.9800     -0.14278674
      24.9900     -0.10632313
      25.0000    -0.080891792
      25.0100    -0.074203884
      25.0200    -0.091627501
      25.0300     -0.13534027
      25.0400     -0.20403250
      25.0500     -0.29321049
      25.0600     -0.39590187
      25.0700     -0.50370375
      25.0800     -0.60807246
      25.0900     -0.70148138
      25.1000     -0.77834931
      25.1100     -0.83553225
      25.1200     -0.87255844
      25.1300     -0.89117213
      25.1400     -0.89472939
      25.1500     -0.88737935
      25.1600     -0.87316120
      25.1700     -0.85530225
      25.1800     -0.83574794
      25.1900     -0.81496460
      25.2000     -0.79206688
      25.2100     -0.76531132
      25.2200     -0.73247116
      25.2300     -0.69149446
      25.2400     -0.64087156
      25.2500     -0.57991161
      25.2600     -0.50888084
      25.2700     -0.42878604
      25.2800     -0.34110237
      25.2900     -0.24750253
      25.3000     -0.14951265
      25.3100    -0.048305748
      25.3200     0.055337355
      25.3300      0.16099756
      25.3400      0.26834216
      25.3500      0.37687600
      25.3600      0.48558913
      25.3700      0.59282106
      25.3800      0.69605435
      25.3900      0.79199172
      25.4000      0.87670141
      25.4100      0.94598967
      25.4200      0.99571543
      25.4300       1.0222325
      25.4400       1.0227997
      25.4500      0.99588130
      25.4600      0.94138673
      25.4700      0.86076187
      25.4800      0.75704812
      25.4900      0.63465126
      25.5000      0.49918743
      25.5100      0.35702311
      25.5200      0.21497380
      25.5300     0.079626063
      25.5400    -0.043054537
      25.5500     -0.14829927
      25.5600     -0.23304527
      25.5700     -0.29614195
      25.5800     -0.33853074
      25.5900     -0.36312346
      25.6000     -0.37440681
      25.6100     -0.37783322
      25.6200     -0.37900248
      25.6300     -0.38285968
      25.6400     -0.39281813
      25.6500     -0.41023545
      25.6600     -0.43393025
      25.6700     -0.46044130
      25.6800     -0.48433517
      25.6900     -0.49906335
      25.7000     -0.49798181
      25.7100     -0.47546323
      25.7200     -0.42790126
      25.7300     -0.35444961
      25.7400     -0.25731317
      25.7500     -0.14159046
      25.7600    -0.014655670
      25.7700      0.11480837
      25.7800      0.23804035
      25.7900      0.34738424
      25.8000      0.43718998
      25.8100      0.50457380
      25.8200      0.54952788
      25.8300      0.57467151
      25.8400      0.58453271
      25.8500      0.58464435
      25.8600      0.58048875
      25.8700      0.57662392
      25.8800      0.57603937
      25.8900      0.57991227
      25.9000      0.58772953
      25.9100      0.59776842
      25.9200      0.60776540
      25.9300      0.61562215
      25.9400      0.62006829
      25.9500      0.62097361
      25.9600      0.61946658
      25.9700      0.61761394
      25.9800      0.61795750
      25.9900      0.62288505
      26.0000      0.63399464
      26.0100      0.65173629
      26.0200      0.67522047
      26.0300      0.70243756
      26.0400      0.73062823
      26.0500      0.75697412
      26.0600      0.77929307
      26.0700      0.79659325
      26.0800      0.80943707
      26.0900      0.81988174
      26.1000      0.83122048
      26.1100      0.84728101
      26.1200      0.87165136
      26.1300      0.90685793
      26.1400      0.95362580
      26.1500       1.0105737
      26.1600       1.0741314
      26.1700       1.1388764
      26.1800       1.1982676
      26.1900       1.2454860
      26.2000       1.2743790
      26.2100       1.2801757
      26.2200       1.2601482
      26.2300       1.2136625
      26.2400       1.1421334
      26.2500       1.0485469
      26.2600      0.93680476
      26.2700      0.81108668
      26.2800      0.67515209
      26.2900      0.53209320
      26.3000      0.38416547
      26.3100      0.23281771
      26.3200     0.079133265
      26.3300    -0.075810337
      26.3400     -0.23053178
      26.3500     -0.38289032
      26.3600     -0.53007806
      26.3700     -0.66859844
      26.3800     -0.79485037
      26.3900     -0.90540650
      26.4000     -0.99758560
      26.4100      -1.0697960
      26.4200      -1.1216877
      26.4300      -1.1541005
      26.4400      -1.1687853
      26.4500      -1.1679329
      26.4600      -1.1536663
      26.4700      -1.1275878
      26.4800      -1.0904366
      26.4900      -1.0421275
      26.5000     -0.98181274
      26.5100     -0.90837562
      26.5200     -0.82101483
      26.5300     -0.71964446
      26.5400     -0.60551744
      26.5500     -0.48135226
      26.5600     -0.35124762
      26.5700     -0.22036950
      26.5800    -0.094269789
      26.5900     0.021725330
      26.6000      0.12336145
      26.6100      0.20798791
      26.6200      0.27475296
      26.6300      0.32471939
      26.6400      0.36040874
      26.6500      0.38528966
      26.6600      0.40295438
      26.6700      0.41652524
      26.6800      0.42804179
      26.6900      0.43818684
      26.7000      0.44642393
      26.7100      0.45128698
      26.7200      0.45100787
      26.7300      0.44422809
      26.7400      0.43055326
      26.7500      0.41101057
      26.7600      0.38811308
      26.7700      0.36554219
      26.7800      0.34771350
      26.7900      0.33880550
      26.8000      0.34209642
      26.8100      0.35915786
      26.8200      0.38948538
      26.8300      0.43051594
      26.8400      0.47795668
      26.8500      0.52657878
      26.8600      0.57128293
      26.8700      0.60801779
      26.8800      0.63473132
      26.8900      0.65186467
      26.9000      0.66245758
      26.9100      0.67163599
      26.9200      0.68577738
      26.9300      0.71128099
      26.9400      0.75329613
      26.9500      0.81454901
      26.9600      0.89471501
      26.9700      0.99000165
      26.9800       1.0935526
      26.9900       1.1963878
      27.0000       1.2885379
      27.0100       1.3606667
      27.0200       1.4053231
      27.0300       1.4181790
      27.0400       1.3984542
      27.0500       1.3489689
      27.0600       1.2755532
      27.0700       1.1858373
      27.0800       1.0879617
      27.0900      0.98907072
      27.1000      0.89417790
      27.1100      0.80522650
      27.1200      0.72100817
      27.1300      0.63740896
      27.1400      0.54837919
      27.1500      0.44710295
      27.1600      0.32742813
      27.1700      0.18511593
      27.1800     0.018885796
      27.1900     -0.16915373
      27.2000     -0.37359555
      27.2100     -0.58617059
      27.2200     -0.79682945
      27.2300     -0.99494411
      27.2400      -1.1706348
      27.2500      -1.3158273
      27.2600      -1.4251228
      27.2700      -1.4961799
      27.2800      -1.5297914
      27.2900      -1.5293398
      27.3000      -1.5002215
      27.3100      -1.4489630
      27.3200      -1.3823875
      27.3300      -1.3068770
      27.3400      -1.2277339
      27.3500      -1.1489965
      27.3600      -1.0731170
      27.3700      -1.0012640
      27.3800     -0.93337650
      27.3900     -0.86854836
      27.4000     -0.80529802
      27.4100     -0.74188855
      27.4200     -0.67654407
      27.4300     -0.60774704
      27.4400     -0.53441687
      27.4500     -0.45602848
      27.4600     -0.37290074
      27.4700     -0.28617679
      27.4800     -0.19792697
      27.4900     -0.11115863
      27.5000    -0.029543741
      27.5100     0.042733766
      27.5200      0.10138156
      27.5300      0.14252530
      27.5400      0.16299095
      27.5500      0.16080182
      27.5600      0.13538903
      27.5700     0.087758012
      27.5800     0.020232296
      27.5900    -0.063695269
      27.6000     -0.15990393
      27.6100     -0.26412688
      27.6200     -0.37235161
      27.6300     -0.48129870
      27.6400     -0.58855961
      27.6500     -0.69270785
      27.6600     -0.79310663
      27.6700     -0.88959011
      27.6800     -0.98215792
      27.6900      -1.0706244
      27.7000      -1.1544223
      27.7100      -1.2324628
      27.7200      -1.3031882
      27.7300      -1.3648237
      27.7400      -1.4157412
      27.7500      -1.4546542
      27.7600      -1.4809954
      27.7700      -1.4949577
      27.7800      -1.4975165
      27.7900      -1.4902080
      27.8000      -1.4748114
      27.8100      -1.4530003
      27.8200      -1.4259973
      27.8300      -1.3943156
      27.8400      -1.3577475
      27.8500      -1.3154515
      27.8600      -1.2662231
      27.8700      -1.2089794
      27.8800      -1.1430711
      27.8900      -1.0686438
      27.9000     -0.98685460
      27.9100     -0.89977071
      27.9200     -0.81015707
      27.9300     -0.72105608
      27.9400     -0.63524970
      27.9500     -0.55467414
      27.9600     -0.48013388
      27.9700     -0.41099011
      27.9800     -0.34523792
      27.9900     -0.27979168
      28.0000     -0.21098080
      28.0100     -0.13517321
      28.0200    -0.049357594
      28.0300     0.048346101
      28.0400      0.15832387
      28.0500      0.27944593
      28.0600      0.40928412
      28.0700      0.54452235
      28.0800      0.68152113
      28.0900      0.81684203
      28.1000      0.94778010
      28.1100       1.0727214
      28.1200       1.1911241
      28.1300       1.3034223
      28.1400       1.4106729
      28.1500       1.5141219
      28.1600       1.6146291
      28.1700       1.7123363
      28.1800       1.8063492
      28.1900       1.8945806
      28.2000       1.9740877
      28.2100       2.0412122
      28.2200       2.0920823
      28.2300       2.1231281
      28.2400       2.1315508
      28.2500       2.1156263
      28.2600       2.0750084
      28.2700       2.0107215
      28.2800       1.9250012
      28.2900       1.8211948
      28.3000       1.7032479
      28.3100       1.5755183
      28.3200       1.4422461
      28.3300       1.3073732
      28.3400       1.1741751
      28.3500       1.0451855
      28.3600      0.92194763
      28.3700      0.80518982
      28.3800      0.69475027
      28.3900      0.58970742
      28.4000      0.48858673
      28.4100      0.38959674
      28.4200      0.29086706
      28.4300      0.19067367
      28.4400     0.087779357
      28.4500    -0.018570334
      28.4600     -0.12836032
      28.4700     -0.24098491
      28.4800     -0.35528077
      28.4900     -0.46982753
      28.5000     -0.58321584
      28.5100     -0.69436521
      28.5200     -0.80269906
      28.5300     -0.90844489
      28.5400      -1.0124416
      28.5500      -1.1160831
      28.5600      -1.2209081
      28.5700      -1.3282757
      28.5800      -1.4388354
      28.5900      -1.5521525
      28.6000      -1.6664468
      28.6100      -1.7786502
      28.6200      -1.8844814
      28.6300      -1.9789052
      28.6400      -2.0568423
      28.6500      -2.1137373
      28.6600      -2.1462706
      28.6700      -2.1529368
      28.6800      -2.1342622
      28.6900      -2.0929122
      28.7000      -2.0333336
      28.7100      -1.9612447
      28.7200      -1.8829299
      28.7300      -1.8043604
      28.7400      -1.7304875
      28.7500      -1.6645592
      28.7600      -1.6078317
      28.7700      -1.5593536
      28.7800      -1.5162300
      28.7900      -1.4740541
      28.8000      -1.4274942
      28.8100      -1.3710230
      28.8200      -1.2995767
      28.8300      -1.2091642
      28.8400      -1.0973330
      28.8500     -0.96340160
      28.8600     -0.80841456
      28.8700     -0.63505443
      28.8800     -0.44734747
      28.8900     -0.25014601
      28.9000    -0.048687051
      28.9100      0.15193519
      28.9200      0.34715463
      28.9300      0.53338561
      28.9400      0.70816426
      28.9500      0.87034437
      28.9600       1.0198735
      28.9700       1.1576396
      28.9800       1.2851283
      28.9900       1.4039079
      29.0000       1.5152300
      29.0100       1.6195479
      29.0200       1.7162537
      29.0300       1.8035565
      29.0400       1.8785519
      29.0500       1.9375539
      29.0600       1.9766316
      29.0700       1.9922556
      29.0800       1.9819287
      29.0900       1.9448120
      29.1000       1.8820422
      29.1100       1.7967707
      29.1200       1.6939992
      29.1300       1.5799101
      29.1400       1.4611386
      29.1500       1.3437702
      29.1600       1.2324845
      29.1700       1.1299535
      29.1800       1.0364530
      29.1900      0.94982153
      29.2000      0.86622166
      29.2100      0.78074158
      29.2200      0.68852807
      29.2300      0.58584923
      29.2400      0.47104622
      29.2500      0.34503016
      29.2600      0.21143615
      29.2700     0.076276893
      29.2800    -0.052991120
      29.2900     -0.16839893
      29.3000     -0.26285973
      29.3100     -0.33115749
      29.3200     -0.37085450
      29.3300     -0.38268699
      29.3400     -0.37033516
      29.3500     -0.33997609
      29.3600     -0.29906959
      29.3700     -0.25532261
      29.3800     -0.21549429
      29.3900     -0.18430780
      29.4000     -0.16395986
      29.4100     -0.15387491
      29.4200     -0.15102692
      29.4300     -0.15064560
      29.4400     -0.14710897
      29.4500     -0.13494631
      29.4600     -0.10976675
      29.4700    -0.068884388
      29.4800    -0.011623745
      29.4900     0.060596505
      29.5000      0.14476052
      29.5100      0.23663168
      29.5200      0.33146638
      29.5300      0.42467112
      29.5400      0.51221624
      29.5500      0.59092938
      29.5600      0.65883947
      29.5700      0.71490964
      29.5800      0.75910901
      29.5900      0.79218721
      29.6000      0.81559270
      29.6100      0.83126870
      29.6200      0.84166033
      29.6300      0.84955115
      29.6400      0.85796468
      29.6500      0.86989201
      29.6600      0.88802275
      29.6700      0.91423929
      29.6800      0.94928063
      29.6900      0.99234495
      29.7000       1.0408768
      29.7100       1.0906343
      29.7200       1.1360004
      29.7300       1.1706747
      29.7400       1.1884335
      29.7500       1.1842065
      29.7600       1.1549060
      29.7700       1.1001284
      29.7800       1.0223658
      29.7900      0.92694877
      29.8000      0.82121707
      29.8100      0.71361521
      29.8200      0.61224936
      29.8300      0.52366138
      29.8400      0.45170670
      29.8500      0.39683462
      29.8600      0.35608479
      29.8700      0.32351828
      29.8800      0.29132009
      29.8900      0.25125852
      29.9000      0.19618262
      29.9100      0.12146496
      29.9200     0.025948838
      29.9300    -0.087656134
      29.9400     -0.21309511
      29.9500     -0.34153088
      29.9600     -0.46295061
      29.9700     -0.56794351
      29.9800     -0.64919305
      29.9900     -0.70285835
      30.0000     -0.72916164
      30.0100     -0.73237678
      30.0200     -0.72014060
      30.0300     -0.70199385
      30.0400     -0.68786625
      30.0500     -0.68624630
      30.0600     -0.70276867
      30.0700     -0.73927275
      30.0800     -0.79348433
      30.0900     -0.85947846
      30.1000     -0.92873223
      30.1100     -0.99164975
      30.1200      -1.0391750
      30.1300      -1.0643209
      30.1400      -1.0633748
      30.1500      -1.0364021
      30.1600     -0.98719975
      30.1700     -0.92254974
      30.1800     -0.85107868
      30.1900     -0.78176914
      30.2000     -0.72253818
      30.2100     -0.67903546
      30.2200     -0.65383534
      30.2300     -0.64624782
      30.2400     -0.65259546
      30.2500     -0.66699449
      30.2600     -0.68243479
      30.2700     -0.69207675
      30.2800     -0.69023589
      30.2900     -0.67329714
      30.3000     -0.64018831
      30.3100     -0.59240122
      30.3200     -0.53360129
      30.3300     -0.46903596
      30.3400     -0.40463239
      30.3500     -0.34623210
      30.3600     -0.29858930
      30.3700     -0.26509626
      30.3800     -0.24734618
      30.3900     -0.24509862
      30.4000     -0.25660012
      30.4100     -0.27886909
      30.4200     -0.30838218
      30.4300     -0.34143619
      30.4400     -0.37480044
      30.4500     -0.40597996
      30.4600     -0.43353898
      30.4700     -0.45725546
      30.4800     -0.47796394
      30.4900     -0.49748278
      30.5000     -0.51834085
      30.5100     -0.54332409
      30.5200     -0.57518460
      30.5300     -0.61612635
      30.5400     -0.66744822
      30.5500     -0.72921065
      30.5600     -0.80002485
      30.5700     -0.87709487
      30.5800     -0.95623425
      30.5900      -1.0323442
      30.6000      -1.0997676
      30.6100      -1.1530078
      30.6200      -1.1872021
      30.6300      -1.1988902
      30.6400      -1.1862588
      30.6500      -1.1494765
      30.6600      -1.0906203
      30.6700      -1.0133611
      30.6800     -0.92244105
      30.6900     -0.82304464
      30.7000     -0.72018807
      30.7100     -0.61805814
      30.7200     -0.51964667
      30.7300     -0.42660884
      30.7400     -0.33934484
      30.7500     -0.25733942
      30.7600     -0.17973277
      30.7700     -0.10581872
      30.7800    -0.035475253
      30.7900     0.030468408
      30.8000     0.090221181
      30.8100      0.14124327
      30.8200      0.18079322
      30.8300      0.20638317
      30.8400      0.21657812
      30.8500      0.21138556
      30.8600      0.19263940
      30.8700      0.16398441
      30.8800      0.13056052
      30.8900     0.098445970
      30.9000     0.073846924
      30.9100     0.062365605
      30.9200     0.068174489
      30.9300     0.093601595
      30.9400      0.13891231
      30.9500      0.20237956
      30.9600      0.28073766
      30.9700      0.36976362
      30.9800      0.46501644
      30.9900      0.56237972
      31.0000      0.65862240
      31.0100      0.75158811
      31.0200      0.84015134
      31.0300      0.92405025
      31.0400       1.0034068
      31.0500       1.0784236
      31.0600       1.1489863
      31.0700       1.2146110
      31.0800       1.2743957
      31.0900       1.3273151
      31.1000       1.3726194
      31.1100       1.4102099
      31.1200       1.4408241
      31.1300       1.4663000
      31.1400       1.4892497
      31.1500       1.5127996
      31.1600       1.5398161
      31.1700       1.5723591
      31.1800       1.6109557
      31.1900       1.6542085
      31.2000       1.6986585
      31.2100       1.7390720
      31.2200       1.7690935
      31.2300       1.7820831
      31.2400       1.7722111
      31.2500       1.7354275
      31.2600       1.6701770
      31.2700       1.5777871
      31.2800       1.4622893
      31.2900       1.3299449
      31.3000       1.1882953
      31.3100       1.0449823
      31.3200      0.90655423
      31.3300      0.77764758
      31.3400      0.66031012
      31.3500      0.55383689
      31.3600      0.45519215
      31.3700      0.35986693
      31.3800      0.26278726
      31.3900      0.15956723
      31.4000     0.047454151
      31.4100    -0.073988162
      31.4200     -0.20259040
      31.4300     -0.33382328
      31.4400     -0.46139692
      31.4500     -0.57819035
      31.4600     -0.67733523
      31.4700     -0.75319348
      31.4800     -0.80222200
      31.4900     -0.82336797
      31.5000     -0.81821099
      31.5100     -0.79054802
      31.5200     -0.74594088
      31.5300     -0.69081031
      31.5400     -0.63169677
      31.5500     -0.57458952
      31.5600     -0.52425665
      31.5700     -0.48412283
      31.5800     -0.45607131
      31.5900     -0.44068673
      31.6000     -0.43745309
      31.6100     -0.44513092
      31.6200     -0.46199863
      31.6300     -0.48609963
      31.6400     -0.51544875
      31.6500     -0.54802898
      31.6600     -0.58189313
      31.6700     -0.61518557
      31.6800     -0.64617075
      31.6900     -0.67337915
      31.7000     -0.69559962
      31.7100     -0.71208418
      31.7200     -0.72250288
      31.7300     -0.72704582
      31.7400     -0.72621150
      31.7500     -0.72069877
      31.7600     -0.71120892
      31.7700     -0.69814003
      31.7800     -0.68157163
      31.7900     -0.66113948
      31.8000     -0.63617754
      31.8100     -0.60596556
      31.8200     -0.57007359
      31.8300     -0.52869841
      31.8400     -0.48298453
      31.8500     -0.43512522
      31.8600     -0.38826772
      31.8700     -0.34629608
      31.8800     -0.31311340
      31.8900     -0.29217958
      31.9000     -0.28570476
      31.9100     -0.29412745
      31.9200     -0.31586545
      31.9300     -0.34727085
      31.9400     -0.38315964
      31.9500     -0.41740836
      31.9600     -0.44398989
      31.9700     -0.45794843
      31.9800     -0.45623130
      31.9900     -0.43823987
      32.0000     -0.40609724
      32.0100     -0.36419510
      32.0200     -0.31845770
      32.0300     -0.27542852
      32.0400     -0.24087484
      32.0500     -0.21892756
      32.0600     -0.21114170
      32.0700     -0.21628077
      32.0800     -0.23040990
      32.0900     -0.24767669
      32.1000     -0.26138558
      32.1100     -0.26517752
      32.1200     -0.25441736
      32.1300     -0.22703969
      32.1400     -0.18409396
      32.1500     -0.12974527
      32.1600    -0.070665717
      32.1700    -0.015047646
      32.1800     0.028867736
      32.1900     0.053910670
      32.2000     0.055362585
      32.2100     0.031544521
      32.2200    -0.015828318
      32.2300    -0.082148429
      32.2400     -0.16049821
      32.2500     -0.24311077
      32.2600     -0.32245925
      32.2700     -0.39261082
      32.2800     -0.45001652
      32.2900     -0.49412820
      32.3000     -0.52711902
      32.3100     -0.55351694
      32.3200     -0.57912943
      32.3300     -0.60988361
      32.3400     -0.65070108
      32.3500     -0.70440526
      32.3600     -0.77125585
      32.3700     -0.84853313
      32.3800     -0.93110646
      32.3900      -1.0117774
      32.4000      -1.0827208
      32.4100      -1.1362132
      32.4200      -1.1658304
      32.4300      -1.1674875
      32.4400      -1.1396800
      32.4500      -1.0839061
      32.4600      -1.0042267
      32.4700     -0.90664862
      32.4800     -0.79831343
      32.4900     -0.68659413
      32.5000     -0.57790658
      32.5100     -0.47723203
      32.5200     -0.38724452
      32.5300     -0.30849892
      32.5400     -0.23919035
      32.5500     -0.17596597
      32.5600     -0.11437804
      32.5700    -0.049842182
      32.5800     0.021453693
      32.5900      0.10195910
      32.6000      0.19201235
      32.6100      0.28993290
      32.6200      0.39182614
      32.6300      0.49238094
      32.6400      0.58532925
      32.6500      0.66459587
      32.6600      0.72520320
      32.6700      0.76405904
      32.6800      0.78064318
      32.6900      0.77728182
      32.7000      0.75893114
      32.7100      0.73262669
      32.7200      0.70654823
      32.7300      0.68888548
      32.7400      0.68665437
      32.7500      0.70463206
      32.7600      0.74456377
      32.7700      0.80502464
      32.7800      0.88132220
      32.7900      0.96650819
      32.8000       1.0521285
      32.8100       1.1298411
      32.8200       1.1925492
      32.8300       1.2354851
      32.8400       1.2571343
      32.8500       1.2593451
      32.8600       1.2470431
      32.8700       1.2274840
      32.8800       1.2089130
      32.8900       1.1993813
      32.9000       1.2052657
      32.9100       1.2302735
      32.9200       1.2748768
      32.9300       1.3362399
      32.9400       1.4085618
      32.9500       1.4842586
      32.9600       1.5550658
      32.9700       1.6134797
      32.9800       1.6539305
      32.9900       1.6736674
      33.0000       1.6732575
      33.0100       1.6563969
      33.0200       1.6293028
      33.0300       1.5997452
      33.0400       1.5756712
      33.0500       1.5640493
      33.0600       1.5696894
      33.0700       1.5944691
      33.0800       1.6370307
      33.0900       1.6929661
      33.1000       1.7552601
      33.1100       1.8153997
      33.1200       1.8642979
      33.1300       1.8936348
      33.1400       1.8965697
      33.1500       1.8687263
      33.1600       1.8083928
      33.1700       1.7167218
      33.1800       1.5971910
      33.1900       1.4553706
      33.2000       1.2978003
      33.2100       1.1316064
      33.2200      0.96345412
      33.2300      0.79904154
      33.2400      0.64290528
      33.2500      0.49775881
      33.2600      0.36503727
      33.2700      0.24456507
      33.2800      0.13526425
      33.2900     0.035258845
      33.3000    -0.057528852
      33.3100     -0.14516527
      33.3200     -0.22935947
      33.3300     -0.31111247
      33.3400     -0.39091745
      33.3500     -0.46844132
      33.3600     -0.54294135
      33.3700     -0.61311731
      33.3800     -0.67765423
      33.3900     -0.73503176
      33.4000     -0.78405265
      33.4100     -0.82382798
      33.4200     -0.85387716
      33.4300     -0.87418888
      33.4400     -0.88517791
      33.4500     -0.88769598
      33.4600     -0.88290404
      33.4700     -0.87233723
      33.4800     -0.85772341
      33.4900     -0.84110031
      33.5000     -0.82465108
      33.5100     -0.81084652
      33.5200     -0.80222000
      33.5300     -0.80138419
      33.5400     -0.81077605
      33.5500     -0.83242576
      33.5600     -0.86774297
      33.5700     -0.91722324
      33.5800     -0.98017651
      33.5900      -1.0547396
      33.6000      -1.1376900
      33.6100      -1.2249520
      33.6200      -1.3116050
      33.6300      -1.3926887
      33.6400      -1.4635625
      33.6500      -1.5205762
      33.6600      -1.5615616
      33.6700      -1.5859918
      33.6800      -1.5951520
      33.6900      -1.5918950
      33.7000      -1.5801146
      33.7100      -1.5642263
      33.7200      -1.5484124
      33.7300      -1.5359140
      33.7400      -1.5285361
      33.7500      -1.5264180
      33.7600      -1.5279738
      33.7700      -1.5301915
      33.7800      -1.5292424
      33.7900      -1.5211230
      33.8000      -1.5024496
      33.8100      -1.4710198
      33.8200      -1.4262087
      33.8300      -1.3692952
      33.8400      -1.3029915
      33.8500      -1.2312944
      33.8600      -1.1585856
      33.8700      -1.0891201
      33.8800      -1.0260992
      33.8900     -0.97147891
      33.9000     -0.92530929
      33.9100     -0.88605885
      33.9200     -0.85091999
      33.9300     -0.81616660
      33.9400     -0.77805626
      33.9500     -0.73331449
      33.9600     -0.67992738
      33.9700     -0.61731142
      33.9800     -0.54651444
      33.9900     -0.47010523
      34.0000     -0.39160442
      34.0100     -0.31508979
      34.0200     -0.24442372
      34.0300     -0.18269738
      34.0400     -0.13179117
      34.0500    -0.092145280
      34.0600    -0.062651101
      34.0700    -0.040977061
      34.0800    -0.023975212
      34.0900   -0.0081492744
      34.1000    0.0096611641
      34.1100     0.031883757
      34.1200     0.059719224
      34.1300     0.093040998
      34.1400      0.13020542
      34.1500      0.16853557
      34.1600      0.20444770
      34.1700      0.23401178
      34.1800      0.25357852
      34.1900      0.26013477
      34.2000      0.25192212
      34.2100      0.22853218
      34.2200      0.19119764
      34.2300      0.14261661
      34.2400     0.086773145
      34.2500     0.028418941
      34.2600    -0.027277575
      34.2700    -0.075491078
      34.2800     -0.11208926
      34.2900     -0.13422912
      34.3000     -0.14059117
      34.3100     -0.13155573
      34.3200     -0.10906786
      34.3300    -0.076452421
      34.3400    -0.037760251
      34.3500    0.0024960188
      34.3600     0.040246193
      34.3700     0.072150229
      34.3800     0.096284580
      34.3900      0.11219802
      34.4000      0.12102777
      34.4100      0.12542386
      34.4200      0.12891812
      34.4300      0.13561142
      34.4400      0.14942932
      34.4500      0.17360282
      34.4600      0.21009438
      34.4700      0.25928491
      34.4800      0.31992123
      34.4900      0.38903477
      34.5000      0.46252656
      34.5100      0.53531327
      34.5200      0.60228966
      34.5300      0.65865063
      34.5400      0.70059638
      34.5500      0.72575752
      34.5600      0.73339867
      34.5700      0.72462976
      34.5800      0.70200562
      34.5900      0.66947289
      34.6000      0.63175678
      34.6100      0.59380297
      34.6200      0.56028860
      34.6300      0.53506665
      34.6400      0.52079730
      34.6500      0.51861303
      34.6600      0.52822360
      34.6700      0.54780686
      34.6800      0.57451344
      34.6900      0.60467588
      34.7000      0.63445428
      34.7100      0.66023153
      34.7200      0.67911538
      34.7300      0.68923824
      34.7400      0.68999379
      34.7500      0.68200583
      34.7600      0.66700510
      34.7700      0.64743125
      34.7800      0.62618586
      34.7900      0.60604782
      34.8000      0.58935591
      34.8100      0.57769101
      34.8200      0.57164345
      34.8300      0.57092614
      34.8400      0.57446412
      34.8500      0.58064568
      34.8600      0.58773546
      34.8700      0.59407137
      34.8800      0.59844197
      34.8900      0.60025401
      34.9000      0.59947445
      34.9100      0.59650421
      34.9200      0.59205122
      34.9300      0.58671344
      34.9400      0.58086457
      34.9500      0.57431043
      34.9600      0.56634893
      34.9700      0.55567181
      34.9800      0.54066655
      34.9900      0.51960778
      35.0000      0.49089998
      35.0100      0.45341440
      35.0200      0.40653071
      35.0300      0.35034162
      35.0400      0.28540544
      35.0500      0.21276191
      35.0600      0.13359536
      35.0700     0.049035314
      35.0800    -0.039822029
      35.0900     -0.13219118
      35.1000     -0.22716415
      35.1100     -0.32389085
      35.1200     -0.42100656
      35.1300     -0.51665363
      35.1400     -0.60814270
      35.1500     -0.69223768
      35.1600     -0.76526653
      35.1700     -0.82343199
      35.1800     -0.86353499
      35.1900     -0.88330327
      35.2000     -0.88209402
      35.2100     -0.86098677
      35.2200     -0.82290096
      35.2300     -0.77217887
      35.2400     -0.71415226
      35.2500     -0.65424210
      35.2600     -0.59723716
      35.2700     -0.54626766
      35.2800     -0.50254141
      35.2900     -0.46482129
      35.3000     -0.42984068
      35.3100     -0.39261885
      35.3200     -0.34747031
      35.3300     -0.28903062
      35.3400     -0.21311278
      35.3500     -0.11783333
      35.3600   -0.0038017908
      35.3700      0.12542376
      35.3800      0.26402816
      35.3900      0.40429071
      35.4000      0.53789733
      35.4100      0.65692855
      35.4200      0.75462343
      35.4300      0.82655929
      35.4400      0.87078375
      35.4500      0.88797509
      35.4600      0.88109148
      35.4700      0.85462606
      35.4800      0.81400004
      35.4900      0.76457981
      35.5000      0.71102384
      35.5100      0.65684685
      35.5200      0.60413969
      35.5300      0.55376300
      35.5400      0.50546730
      35.5500      0.45852377
      35.5600      0.41200559
      35.5700      0.36525951
      35.5800      0.31820874
      35.5900      0.27137617
      35.6000      0.22579825
      35.6100      0.18283220
      35.6200      0.14390151
      35.6300      0.11017173
      35.6400     0.082377523
      35.6500     0.060688199
      35.6600     0.044695907
      35.6700     0.033597343
      35.6800     0.026326330
      35.6900     0.021744260
      35.7000     0.018806235
      35.7100     0.016702643
      35.7200     0.014917364
      35.7300     0.013166548
      35.7400     0.011294759
      35.7500    0.0092588962
      35.7600    0.0068797192
      35.7700    0.0040155141
      35.7800   0.00027418636
      35.7900   -0.0047101980
      35.8000    -0.011419546
      35.8100    -0.020158334
      35.8200    -0.031186878
      35.8300    -0.044507543
      35.8400    -0.059968280
      35.8500    -0.077194553
      35.8600    -0.095720543
      35.8700     -0.11486931
      35.8800     -0.13389175
      35.8900     -0.15191313
      35.9000     -0.16799605
      35.9100     -0.18104160
      35.9200     -0.18986186
      35.9300     -0.19323406
      35.9400     -0.19008203
      35.9500     -0.17951839
      35.9600     -0.16113660
      35.9700     -0.13524259
      35.9800     -0.10283877
      35.9900    -0.065947369
      36.0000    -0.027262650
      36.0100    0.0098597652
      36.0200     0.041935491
      36.0300     0.065577629
      36.0400     0.078242067
      36.0500     0.078449895
      36.0600     0.066147977
      36.0700     0.042841392
      36.0800     0.011341657
      36.0900    -0.024487871
      36.1000    -0.060347981
      36.1100    -0.092204522
      36.1200     -0.11680109
      36.1300     -0.13238162
      36.1400     -0.13882306
      36.1500     -0.13777473
      36.1600     -0.13238715
      36.1700     -0.12675872
      36.1800     -0.12525479
      36.1900     -0.13171546
      36.2000     -0.14867287
      36.2100     -0.17693240
      36.2200     -0.21524916
      36.2300     -0.26036984
      36.2400     -0.30744140
      36.2500     -0.35067908
      36.2600     -0.38421055
      36.2700     -0.40287375
      36.2800     -0.40308668
      36.2900     -0.38329683
      36.3000     -0.34433434
      36.3100     -0.28928167
      36.3200     -0.22299863
      36.3300     -0.15168363
      36.3400    -0.081728182
      36.3500    -0.019139446
      36.3600     0.031429563
      36.3700     0.067143736
      36.3800     0.087388442
      36.3900     0.093670060
      36.4000     0.089338032
      36.4100     0.079023323
      36.4200     0.067941379
      36.4300     0.061011829
      36.4400     0.062260466
      36.4500     0.074142627
      36.4600     0.097279682
      36.4700      0.13034506
      36.4800      0.17034543
      36.4900      0.21296084
      36.5000      0.25323443
      36.5100      0.28618313
      36.5200      0.30745572
      36.5300      0.31391659
      36.5400      0.30380016
      36.5500      0.27698070
      36.5600      0.23470280
      36.5700      0.17924633
      36.5800      0.11354805
      36.5900     0.040531794
      36.6000    -0.037298148
      36.6100     -0.11818704
      36.6200     -0.20128586
      36.6300     -0.28675876
      36.6400     -0.37525034
      36.6500     -0.46774648
      36.6600     -0.56504560
      36.6700     -0.66709223
      36.6800     -0.77298980
      36.6900     -0.88041584
      36.7000     -0.98602878
      36.7100      -1.0854292
      36.7200      -1.1738133
      36.7300      -1.2464282
      36.7400      -1.2991739
      36.7500      -1.3291667
      36.7600      -1.3350875
      36.7700      -1.3173742
      36.7800      -1.2781574
      36.7900      -1.2210519
      36.8000      -1.1506018
      36.8100      -1.0717557
      36.8200     -0.98935082
      36.8300     -0.90757624
      36.8400     -0.82949257
      36.8500     -0.75701727
      36.8600     -0.69063327
      36.8700     -0.62979924
      36.8800     -0.57299665
      36.8900     -0.51829259
      36.9000     -0.46364285
      36.9100     -0.40717445
      36.9200     -0.34772029
      36.9300     -0.28476682
      36.9400     -0.21874354
      36.9500     -0.15091123
      36.9600    -0.083334482
      36.9700    -0.018511427
      36.9800     0.040683743
      36.9900     0.091400994
      37.0000      0.13121102
      37.0100      0.15823987
      37.0200      0.17158873
      37.0300      0.17148045
      37.0400      0.15927310
      37.0500      0.13758789
      37.0600      0.10993760
      37.0700     0.080571611
      37.0800     0.053991756
      37.0900     0.034511020
      37.1000     0.025738437
      37.1100     0.030236783
      37.1200     0.049146072
      37.1300     0.082185121
      37.1400      0.12766710
      37.1500      0.18274865
      37.1600      0.24395895
      37.1700      0.30755803
      37.1800      0.37017374
      37.1900      0.42904740
      37.2000      0.48250759
      37.2100      0.52993688
      37.2200      0.57170229
      37.2300      0.60897090
      37.2400      0.64328358
      37.2500      0.67634673
      37.2600      0.70961596
      37.2700      0.74424898
      37.2800      0.78098593
      37.2900      0.82030317
      37.3000      0.86257011
      37.3100      0.90827952
      37.3200      0.95811608
      37.3300       1.0130566
      37.3400       1.0741704
      37.3500       1.1423168
      37.3600       1.2178392
      37.3700       1.2999950
      37.3800       1.3868422
      37.3900       1.4748821
      37.4000       1.5593485
      37.4100       1.6345552
      37.4200       1.6943843
      37.4300       1.7332963
      37.4400       1.7470101
      37.4500       1.7332821
      37.4600       1.6923508
      37.4700       1.6270036
      37.4800       1.5423045
      37.4900       1.4449357
      37.5000       1.3422027
      37.5100       1.2409985
      37.5200       1.1468343
      37.5300       1.0630124
      37.5400      0.99021199
      37.5500      0.92653671
      37.5600      0.86794184
      37.5700      0.80902964
      37.5800      0.74416923
      37.5900      0.66825006
      37.6000      0.57782612
      37.6100      0.47146885
      37.6200      0.35005091
      37.6300      0.21639983
      37.6400     0.074697463
      37.6500    -0.070079138
      37.6600     -0.21337709
      37.6700     -0.35140314
      37.6800     -0.48213975
      37.6900     -0.60493086
      37.7000     -0.72080377
      37.7100     -0.83168417
      37.7200     -0.93996927
      37.7300      -1.0478032
      37.7400      -1.1563342
      37.7500      -1.2656563
      37.7600      -1.3743455
      37.7700      -1.4800432
      37.7800      -1.5795215
      37.7900      -1.6695072
      37.8000      -1.7470327
      37.8100      -1.8101809
      37.8200      -1.8581323
      37.8300      -1.8912593
      37.8400      -1.9111048
      37.8500      -1.9198028
      37.8600      -1.9197016
      37.8700      -1.9129101
      37.8800      -1.9008213
      37.8900      -1.8839735
      37.9000      -1.8620120
      37.9100      -1.8338664
      37.9200      -1.7979978
      37.9300      -1.7529115
      37.9400      -1.6973612
      37.9500      -1.6307644
      37.9600      -1.5533546
      37.9700      -1.4661272
      37.9800      -1.3706745
      37.9900      -1.2691450
      38.0000      -1.1636767
      38.0100      -1.0564116
      38.0200     -0.94902758
      38.0300     -0.84292568
      38.0400     -0.73890230
      38.0500     -0.63752392
      38.0600     -0.53900508
      38.0700     -0.44346373
      38.0800     -0.35108909
      38.0900     -0.26204682
      38.1000     -0.17666036
      38.1100    -0.095202636
      38.1200    -0.017940793
      38.1300     0.055015178
      38.1400      0.12372390
      38.1500      0.18834864
      38.1600      0.24929428
      38.1700      0.30689275
      38.1800      0.36151055
      38.1900      0.41330333
      38.2000      0.46229991
      38.2100      0.50820666
      38.2200      0.55074548
      38.2300      0.58947852
      38.2400      0.62408916
      38.2500      0.65450392
      38.2600      0.68090317
      38.2700      0.70387879
      38.2800      0.72424144
      38.2900      0.74303491
      38.3000      0.76130331
      38.3100      0.78002445
      38.3200      0.79988386
      38.3300      0.82117422
      38.3400      0.84384690
      38.3500      0.86741052
      38.3600      0.89115743
      38.3700      0.91421083
      38.3800      0.93577956
      38.3900      0.95522184
      38.4000      0.97205635
      38.4100      0.98613682
      38.4200      0.99748985
      38.4300       1.0063011
      38.4400       1.0127205
      38.4500       1.0168208
      38.4600       1.0184172
      38.4700       1.0171306
      38.4800       1.0123101
      38.4900       1.0032233
      38.5000      0.98900584
      38.5100      0.96890643
      38.5200      0.94236359
      38.5300      0.90908883
      38.5400      0.86910907
      38.5500      0.82281590
      38.5600      0.77078640
      38.5700      0.71386416
      38.5800      0.65295005
      38.5900      0.58901072
      38.6000      0.52304126
      38.6100      0.45590100
      38.6200      0.38852608
      38.6300      0.32172731
      38.6400      0.25635419
      38.6500      0.19336260
      38.6600      0.13362044
      38.6700     0.078150722
      38.6800     0.027787461
      38.6900    -0.016572652
      38.7000    -0.054269999
      38.7100    -0.084785024
      38.7200     -0.10783573
      38.7300     -0.12335941
      38.7400     -0.13152424
      38.7500     -0.13268812
      38.7600     -0.12736415
      38.7700     -0.11621094
      38.7800    -0.099996349
      38.7900    -0.079561541
      38.8000    -0.055890074
      38.8100    -0.029980485
      38.8200   -0.0029005603
      38.8300     0.024279421
      38.8400     0.050628578
      38.8500     0.075370301
      38.8600     0.098117673
      38.8700      0.11886705
      38.8800      0.13816981
      38.8900      0.15705236
      38.9000      0.17698995
      38.9100      0.19971354
      38.9200      0.22688742
      38.9300      0.25995794
      38.9400      0.29966599
      38.9500      0.34589431
      38.9600      0.39745955
      38.9700      0.45212783
      38.9800      0.50675237
      38.9900      0.55753330
      39.0000      0.60054686
      39.0100      0.63220189
      39.0200      0.64981753
      39.0300      0.65193160
      39.0400      0.63872501
      39.0500      0.61190706
      39.0600      0.57453871
      39.0700      0.53072778
      39.0800      0.48487267
      39.0900      0.44106348
      39.1000      0.40244788
      39.1100      0.37073864
      39.1200      0.34592968
      39.1300      0.32630241
      39.1400      0.30880079
      39.1500      0.28953981
      39.1600      0.26454662
      39.1700      0.23056168
      39.1800      0.18564842
      39.1900      0.12975136
      39.2000     0.064738342
      39.2100   -0.0055862686
      39.2200    -0.076226599
      39.2300     -0.14156986
      39.2400     -0.19635048
      39.2500     -0.23651566
      39.2600     -0.25985928
      39.2700     -0.26653413
      39.2800     -0.25903970
      39.2900     -0.24200042
      39.3000     -0.22129489
      39.3100     -0.20341457
      39.3200     -0.19438594
      39.3300     -0.19889939
      39.3400     -0.21971832
      39.3500     -0.25722242
      39.3600     -0.30956621
      39.3700     -0.37296082
      39.3800     -0.44237738
      39.3900     -0.51240114
      39.4000     -0.57787079
      39.4100     -0.63481875
      39.4200     -0.68063346
      39.4300     -0.71452780
      39.4400     -0.73711380
      39.4500     -0.75021023
      39.4600     -0.75629648
      39.4700     -0.75793024
      39.4800     -0.75733117
      39.4900     -0.75604044
      39.5000     -0.75484577
      39.5100     -0.75386551
      39.5200     -0.75284875
      39.5300     -0.75137635
      39.5400     -0.74921367
      39.5500     -0.74642250
      39.5600     -0.74340129
      39.5700     -0.74069078
      39.5800     -0.73868811
      39.5900     -0.73734520
      39.6000     -0.73594175
      39.6100     -0.73286331
      39.6200     -0.72580796
      39.6300     -0.71194095
      39.6400     -0.68854865
      39.6500     -0.65350547
      39.6600     -0.60592492
      39.6700     -0.54657408
      39.6800     -0.47803515
      39.6900     -0.40472276
      39.7000     -0.33220804
      39.7100     -0.26674221
      39.7200     -0.21418382
      39.7300     -0.17918117
      39.7400     -0.16449625
      39.7500     -0.17050355
      39.7600     -0.19507893
      39.7700     -0.23403104
      39.7800     -0.28169519
      39.7900     -0.33191983
      39.8000     -0.37884039
      39.8100     -0.41793615
      39.8200     -0.44650847
      39.8300     -0.46386952
      39.8400     -0.47121028
      39.8500     -0.47119835
      39.8600     -0.46711087
      39.8700     -0.46201254
      39.8800     -0.45834276
      39.8900     -0.45702636
      39.9000     -0.45771213
      39.9100     -0.45863336
      39.9200     -0.45747838
      39.9300     -0.45159583
      39.9400     -0.43897733
      39.9500     -0.41856829
      39.9600     -0.39073232
      39.9700     -0.35696334
      39.9800     -0.31964339
      39.9900     -0.28150577
      40.0000     -0.24475657
      40.0100     -0.21058047
      40.0200     -0.17879625
      40.0300     -0.14763275
      40.0400     -0.11416509
      40.0500    -0.074958878
      40.0600    -0.026789561
      40.0700     0.032314567
      40.0800      0.10240526
      40.0900      0.18119752
      40.1000      0.26404420
      40.1100      0.34462797
      40.1200      0.41569632
      40.1300      0.47049682
      40.1400      0.50389273
      40.1500      0.51360632
      40.1600      0.50087167
      40.1700      0.47060497
      40.1800      0.43093187
      40.1900      0.39219989
      40.2000      0.36539361
      40.2100      0.36043798
      40.2200      0.38471718
      40.2300      0.44157193
      40.2400      0.52965230
      40.2500      0.64311174
      40.2600      0.77184428
      40.2700      0.90327748
      40.2800       1.0237171
      40.2900       1.1206156
      40.3000       1.1839327
      40.3100       1.2076349
      40.3200       1.1906161
      40.3300       1.1364037
      40.3400       1.0525391
      40.3500      0.94960753
      40.3600      0.83914864
      40.3700      0.73245172
      40.3800      0.63855183
      40.3900      0.56339275
      40.4000      0.50914573
      40.4100      0.47414825
      40.4200      0.45359645
      40.4300      0.44052713
      40.4400      0.42721005
      40.4500      0.40649586
      40.4600      0.37286144
      40.4700      0.32350225
      40.4800      0.25837193
      40.4900      0.18041955
      40.5000     0.094672059
      40.5100    0.0077075726
      40.5200    -0.073748080
      40.5300     -0.14361040
      40.5400     -0.19734014
      40.5500     -0.23255505
      40.5600     -0.24923040
      40.5700     -0.24945239
      40.5800     -0.23709250
      40.5900     -0.21689289
      40.6000     -0.19389166
      40.6100     -0.17254751
      40.6200     -0.15619631
      40.6300     -0.14670616
      40.6400     -0.14429579
      40.6500     -0.14779700
      40.6600     -0.15491215
      40.6700     -0.16278694
      40.6800     -0.16845715
      40.6900     -0.16944000
      40.7000     -0.16402855
      40.7100     -0.15154936
      40.7200     -0.13242548
      40.7300     -0.10805892
      40.7400    -0.080591576
      40.7500    -0.052556352
      40.7600    -0.026618964
      40.7700   -0.0051321011
      40.7800     0.010096661
      40.7900     0.017993032
      40.8000     0.018297208
      40.8100     0.011663700
      40.8200  -0.00058639952
      40.8300    -0.016493881
      40.8400    -0.033785410
      40.8500    -0.050151593
      40.8600    -0.063429533
      40.8700    -0.072045538
      40.8800    -0.075161528
      40.8900    -0.072881115
      40.9000    -0.066247070
      40.9100    -0.057244633
      40.9200    -0.048570211
      40.9300    -0.043332425
      40.9400    -0.044509330
      40.9500    -0.054768410
      40.9600    -0.075689535
      40.9700     -0.10768722
      40.9800     -0.14969464
      40.9900     -0.19921371
      41.0000     -0.25262438
      41.0100     -0.30548770
      41.0200     -0.35336148
      41.0300     -0.39225301
      41.0400     -0.41945817
      41.0500     -0.43382231
      41.0600     -0.43619846
      41.0700     -0.42924183
      41.0800     -0.41712652
      41.0900     -0.40499260
      41.1000     -0.39808492
      41.1100     -0.40104545
      41.1200     -0.41718906
      41.1300     -0.44795632
      41.1400     -0.49278144
      41.1500     -0.54912620
      41.1600     -0.61296725
      41.1700     -0.67934015
      41.1800     -0.74318304
      41.1900     -0.79989829
      41.2000     -0.84610117
      41.2100     -0.87968844
      41.2200     -0.90012212
      41.2300     -0.90807758
      41.2400     -0.90505560
      41.2500     -0.89293676
      41.2600     -0.87352329
      41.2700     -0.84817081
      41.2800     -0.81778071
      41.2900     -0.78270889
      41.3000     -0.74327209
      41.3100     -0.69984145
      41.3200     -0.65326167
      41.3300     -0.60507304
      41.3400     -0.55742045
      41.3500     -0.51279874
      41.3600     -0.47355220
      41.3700     -0.44141622
      41.3800     -0.41680874
      41.3900     -0.39851224
      41.4000     -0.38362269
      41.4100     -0.36773530
      41.4200     -0.34559103
      41.4300     -0.31197194
      41.4400     -0.26274804
      41.4500     -0.19579176
      41.4600     -0.11176851
      41.4700    -0.014328002
      41.4800     0.090120014
      41.4900      0.19303393
      41.5000      0.28517706
      41.5100      0.35773067
      41.5200      0.40395040
      41.5300      0.42016495
      41.5400      0.40646458
      41.5500      0.36685412
      41.5600      0.30846364
      41.5700      0.24060609
      41.5800      0.17327730
      41.5900      0.11538121
      41.6000     0.073737087
      41.6100     0.051702033
      41.6200     0.049238808
      41.6300     0.062943036
      41.6400     0.087102553
      41.6500      0.11491698
      41.6600      0.14002045
      41.6700      0.15760546
      41.6800      0.16543683
      41.6900      0.16415748
      41.7000      0.15707720
      41.7100      0.14925500
      41.7200      0.14636992
      41.7300      0.15346343
      41.7400      0.17380256
      41.7500      0.20810954
      41.7600      0.25439275
      41.7700      0.30842386
      41.7800      0.36447005
      41.7900      0.41669108
      41.8000      0.46023774
      41.8100      0.49249361
      41.8200      0.51364063
      41.8300      0.52663980
      41.8400      0.53688219
      41.8500      0.55091005
      41.8600      0.57532427
      41.8700      0.61515317
      41.8800      0.67294681
      41.8900      0.74797805
      41.9000      0.83611065
      41.9100      0.93056774
      41.9200       1.0227563
      41.9300       1.1039779
      41.9400       1.1666405
      41.9500       1.2056772
      41.9600       1.2192826
      41.9700       1.2091749
      41.9800       1.1800985
      41.9900       1.1389510
      42.0000       1.0934723
      42.0100       1.0509271
      42.0200       1.0168043
      42.0300      0.99415356
      42.0400      0.98323166
      42.0500      0.98182727
      42.0600      0.98602097
      42.0700      0.99126703
      42.0800      0.99347086
      42.0900      0.98987868
      42.1000      0.97988332
      42.1100      0.96481501
      42.1200      0.94769082
      42.1300      0.93238158
      42.1400      0.92261129
      42.1500      0.92086880
      42.1600      0.92765638
      42.1700      0.94112019
      42.1800      0.95712864
      42.1900      0.96991417
      42.2000      0.97306032
      42.2100      0.96063254
      42.2200      0.92840492
      42.2300      0.87460576
      42.2400      0.80053829
      42.2500      0.71022619
      42.2600      0.61004405
      42.2700      0.50736683
      42.2800      0.40970940
      42.2900      0.32299481
      42.3000      0.25102783
      42.3100      0.19456997
      42.3200      0.15152756
      42.3300      0.11737600
      42.3400     0.086129859
      42.3500     0.051567984
      42.3600    0.0084073774
      42.3700    -0.046578757
      42.3800     -0.11401451
      42.3900     -0.19182426
      42.4000     -0.27541496
      42.4100     -0.35885555
      42.4200     -0.43562974
      42.4300     -0.50013006
      42.4400     -0.54848563
      42.4500     -0.57941424
      42.4600     -0.59430639
      42.4700     -0.59706206
      42.4800     -0.59336352
      42.4900     -0.58960679
      42.5000     -0.59193540
      42.5100     -0.60501385
      42.5200     -0.63146597
      42.5300     -0.67131200
      42.5400     -0.72224268
      42.5500     -0.77989483
      42.5600     -0.83884075
      42.5700     -0.89333233
      42.5800     -0.93828448
      42.5900     -0.97010394
      42.6000     -0.98684183
      42.6100     -0.98852816
      42.6200     -0.97673942
      42.6300     -0.95421849
      42.6400     -0.92407984
      42.6500     -0.88936311
      42.6600     -0.85227375
      42.6700     -0.81421432
      42.6800     -0.77551562
      42.6900     -0.73582747
      42.7000     -0.69438440
      42.7100     -0.65055168
      42.7200     -0.60414247
      42.7300     -0.55572697
      42.7400     -0.50671672
      42.7500     -0.45901609
      42.7600     -0.41492321
      42.7700     -0.37638692
      42.7800     -0.34477073
      42.7900     -0.32036204
      42.8000     -0.30226489
      42.8100     -0.28841881
      42.8200     -0.27596938
      42.8300     -0.26177875
      42.8400     -0.24298658
      42.8500     -0.21756950
      42.8600     -0.18488300
      42.8700     -0.14584261
      42.8800     -0.10280752
      42.8900    -0.059307786
      42.9000    -0.019618771
      42.9100     0.012095937
      42.9200     0.032350439
      42.9300     0.038923272
      42.9400     0.031281064
      42.9500     0.010595219
      42.9600    -0.020418074
      42.9700    -0.057966683
      42.9800    -0.097732195
      42.9900     -0.13559714
      43.0000     -0.16824260
      43.0100     -0.19355173
      43.0200     -0.21093618
      43.0300     -0.22122656
      43.0400     -0.22641282
      43.0500     -0.22920197
      43.0600     -0.23240075
      43.0700     -0.23850632
      43.0800     -0.24911799
      43.0900     -0.26482712
      43.1000     -0.28505492
      43.1100     -0.30829655
      43.1200     -0.33237640
      43.1300     -0.35504254
      43.1400     -0.37423630
      43.1500     -0.38856175
      43.1600     -0.39757165
      43.1700     -0.40171280
      43.1800     -0.40227440
      43.1900     -0.40111652
      43.2000     -0.40017268
      43.2100     -0.40118866
      43.2200     -0.40514794
      43.2300     -0.41220018
      43.2400     -0.42147020
      43.2500     -0.43119953
      43.2600     -0.43886918
      43.2700     -0.44185870
      43.2800     -0.43757607
      43.2900     -0.42406168
      43.3000     -0.40020829
      43.3100     -0.36599286
      43.3200     -0.32243504
      43.3300     -0.27138365
      43.3400     -0.21526714
      43.3500     -0.15658049
      43.3600    -0.097491783
      43.3700    -0.039530212
      43.3800     0.016701519
      43.3900     0.071545564
      43.4000      0.12614128
      43.4100      0.18208133
      43.4200      0.24096409
      43.4300      0.30407643
      43.4400      0.37182091
      43.4500      0.44364977
      43.4600      0.51777829
      43.4700      0.59156996
      43.4800      0.66185652
      43.4900      0.72536837
      43.5000      0.77950749
      43.5100      0.82267496
      43.5200      0.85490131
      43.5300      0.87766711
      43.5400      0.89404691
      43.5500      0.90801021
      43.5600      0.92387622
      43.5700      0.94541383
      43.5800      0.97508893
      43.5900       1.0134424
      43.6000       1.0586399
      43.6100       1.1065804
      43.6200       1.1512756
      43.6300       1.1856200
      43.6400       1.2024558
      43.6500       1.1956010
      43.6600       1.1609056
      43.6700       1.0971598
      43.6800       1.0061951
      43.6900      0.89318123
      43.7000      0.76560734
      43.7100      0.63274890
      43.7200      0.50414948
      43.7300      0.38845206
      43.7400      0.29244379
      43.7500      0.21983764
      43.7600      0.17124984
      43.7700      0.14406039
      43.7800      0.13305540
      43.7900      0.13130731
      43.8000      0.13121840
      43.8100      0.12569764
      43.8200      0.10907504
      43.8300     0.077798825
      43.8400     0.030610116
      43.8500    -0.031448926
      43.8600     -0.10566267
      43.8700     -0.18811984
      43.8800     -0.27467050
      43.8900     -0.36166363
      43.9000     -0.44611819
      43.9100     -0.52653019
      43.9200     -0.60242289
      43.9300     -0.67436379
      43.9400     -0.74333802
      43.9500     -0.81057868
      43.9600     -0.87679538
      43.9700     -0.94217312
      43.9800      -1.0061535
      43.9900      -1.0675149
      44.0000      -1.1248029
      44.0100      -1.1764255
      44.0200      -1.2213711
      44.0300      -1.2591436
      44.0400      -1.2902007
      44.0500      -1.3157257
      44.0600      -1.3375026
      44.0700      -1.3575356
      44.0800      -1.3776592
      44.0900      -1.3990904
      44.1000      -1.4221909
      44.1100      -1.4462485
      44.1200      -1.4695231
      44.1300      -1.4894680
      44.1400      -1.5030804
      44.1500      -1.5072956
      44.1600      -1.4994187
      44.1700      -1.4775529
      44.1800      -1.4407971
      44.1900      -1.3893686
      44.2000      -1.3245536
      44.2100      -1.2485406
      44.2200      -1.1640640
      44.2300      -1.0739817
      44.2400     -0.98120769
      44.2500     -0.88793941
      44.2600     -0.79596175
      44.2700     -0.70608331
      44.2800     -0.61851396
      44.2900     -0.53268305
      44.3000     -0.44768484
      44.3100     -0.36234635
      44.3200     -0.27556606
      44.3300     -0.18661950
      44.3400    -0.095243822
      44.3500   -0.0018168797
      44.3600     0.092663602
      44.3700      0.18658530
      44.3800      0.27798583
      44.3900      0.36479155
      44.4000      0.44493751
      44.4100      0.51688977
      44.4200      0.57966597
      44.4300      0.63311914
      44.4400      0.67788303
      44.4500      0.71543016
      44.4600      0.74758075
      44.4700      0.77654559
      44.4800      0.80435827
      44.4900      0.83249205
      44.5000      0.86185729
      44.5100      0.89236375
      44.5200      0.92313030
      44.5300      0.95253188
      44.5400      0.97853039
      44.5500      0.99912115
      44.5600       1.0125366
      44.5700       1.0177861
      44.5800       1.0146635
      44.5900       1.0039424
      44.6000      0.98710687
      44.6100      0.96615604
      44.6200      0.94319775
      44.6300      0.92004904
      44.6400      0.89789849
      44.6500      0.87713146
      44.6600      0.85730110
      44.6700      0.83726751
      44.6800      0.81551257
      44.6900      0.79056678
      44.7000      0.76130510
      44.7100      0.72739781
      44.7200      0.68923998
      44.7300      0.64811560
      44.7400      0.60585983
      44.7500      0.56449274
      44.7600      0.52582009
      44.7700      0.49105008
      44.7800      0.46048358
      44.7900      0.43356392
      44.8000      0.40885706
      44.8100      0.38453003
      44.8200      0.35867777
      44.8300      0.33001072
      44.8400      0.29792129
      44.8500      0.26300933
      44.8600      0.22683511
      44.8700      0.19175546
      44.8800      0.16031899
      44.8900      0.13475364
      44.9000      0.11643277
      44.9100      0.10529129
      44.9200     0.099867534
      44.9300     0.097323732
      44.9400     0.093901402
      44.9500     0.085662389
      44.9600     0.069304555
      44.9700     0.042890783
      44.9800    0.0064065255
      44.9900    -0.037988864
      45.0000    -0.086202399
      45.0100     -0.13265046
      45.0200     -0.17130370
      45.0300     -0.19647578
      45.0400     -0.20408662
      45.0500     -0.19223155
      45.0600     -0.16170062
      45.0700     -0.11589583
      45.0800    -0.060446409
      45.0900   -0.0022155748
      45.1000     0.051634542
      45.1100     0.094957582
      45.1200      0.12325196
      45.1300      0.13465116
      45.1400      0.12978025
      45.1500      0.11169646
      45.1600     0.085166610
      45.1700     0.055817618
      45.1800     0.029062389
      45.1900    0.0094200224
      45.2000  -0.00033522505
      45.2100   0.00082013419
      45.2200     0.012084446
      45.2300     0.031404408
      45.2400     0.055973257
      45.2500     0.083040283
      45.2600      0.11032908
      45.2700      0.13650758
      45.2800      0.16114314
      45.2900      0.18457602
      45.3000      0.20741520
      45.3100      0.23008459
      45.3200      0.25234540
      45.3300      0.27306510
      45.3400      0.29020241
      45.3500      0.30110167
      45.3600      0.30305680
      45.3700      0.29382752
      45.3800      0.27258635
      45.3900      0.23994194
      45.4000      0.19848110
      45.4100      0.15238428
      45.4200      0.10686994
      45.4300     0.067402964
      45.4400     0.038725765
      45.4500     0.023973350
      45.4600     0.023982958
      45.4700     0.037084494
      45.4800     0.059290392
      45.4900     0.084753212
      45.5000      0.10706287
      45.5100      0.12004021
      45.5200      0.11906691
      45.5300      0.10187439
      45.5400     0.068973411
      45.5500     0.023564118
      45.5600    -0.028873895
      45.5700    -0.081729922
      45.5800     -0.12821089
      45.5900     -0.16276626
      45.6000     -0.18194380
      45.6100     -0.18499573
      45.6200     -0.17405237
      45.6300     -0.15363436
      45.6400     -0.12990309
      45.6500     -0.10944631
      45.6600    -0.098121772
      45.6700     -0.10009409
      45.6800     -0.11692637
      45.6900     -0.14747308
      45.7000     -0.18797291
      45.7100     -0.23279012
      45.7200     -0.27516037
      45.7300     -0.30852529
      45.7400     -0.32729283
      45.7500     -0.32770495
      45.7600     -0.30836744
      45.7700     -0.27005547
      45.7800     -0.21566989
      45.7900     -0.14950493
      45.8000    -0.076473724
      45.8100   -0.0016615842
      45.8200     0.070570867
      45.8300      0.13663123
      45.8400      0.19405284
      45.8500      0.24116376
      45.8600      0.27707269
      45.8700      0.30122451
      45.8800      0.31325115
      45.8900      0.31286184
      45.9000      0.29984088
      45.9100      0.27424192
      45.9200      0.23667936
      45.9300      0.18844504
      45.9400      0.13173533
      45.9500     0.069518067
      45.9600    0.0053499031
      45.9700    -0.057138472
      45.9800     -0.11471724
      45.9900     -0.16503091
      46.0000     -0.20720354
      46.0100     -0.24182911
      46.0200     -0.27105817
      46.0300     -0.29825735
      46.0400     -0.32728828
      46.0500     -0.36183480
      46.0600     -0.40473550
      46.0700     -0.45727315
      46.0800     -0.51888195
      46.0900     -0.58726011
      46.1000     -0.65849959
      46.1100     -0.72788349
      46.1200     -0.79058291
      46.1300     -0.84247288
      46.1400     -0.88081736
      46.1500     -0.90466811
      46.1600     -0.91475133
      46.1700     -0.91333785
      46.1800     -0.90345713
      46.1900     -0.88839548
      46.2000     -0.87065081
      46.2100     -0.85151037
      46.2200     -0.83065460
      46.2300     -0.80635889
      46.2400     -0.77564461
      46.2500     -0.73524310
      46.2600     -0.68227206
      46.2700     -0.61489832
      46.2800     -0.53326533
      46.2900     -0.43933225
      46.3000     -0.33698530
      46.3100     -0.23153586
      46.3200     -0.12867235
      46.3300    -0.033839631
      46.3400     0.048869963
      46.3500      0.11727216
      46.3600      0.17156437
      46.3700      0.21393886
      46.3800      0.24831197
      46.3900      0.27946867
      46.4000      0.31196731
      46.4100      0.34939720
      46.4200      0.39350329
      46.4300      0.44400424
      46.4400      0.49841265
      46.4500      0.55278944
      46.4600      0.60224591
      46.4700      0.64206462
      46.4800      0.66850265
      46.4900      0.67953780
      46.5000      0.67521851
      46.5100      0.65772596
      46.5200      0.63086649
      46.5300      0.59948875
      46.5400      0.56850557
      46.5500      0.54210081
      46.5600      0.52304857
      46.5700      0.51225017
      46.5800      0.50888419
      46.5900      0.51039676
      46.6000      0.51343459
      46.6100      0.51434233
      46.6200      0.51010341
      46.6300      0.49870120
      46.6400      0.47976436
      46.6500      0.45437767
      46.6600      0.42496051
      46.6700      0.39475394
      46.6800      0.36716001
      46.6900      0.34521879
      46.7000      0.33094421
      46.7100      0.32522489
      46.7200      0.32759798
      46.7300      0.33655828
      46.7400      0.34981846
      46.7500      0.36493041
      46.7600      0.37964594
      46.7700      0.39236454
      46.7800      0.40229346
      46.7900      0.40956211
      46.8000      0.41493236
      46.8100      0.41959954
      46.8200      0.42469165
      46.8300      0.43105675
      46.8400      0.43889465
      46.8500      0.44755148
      46.8600      0.45568947
      46.8700      0.46134629
      46.8800      0.46231038
      46.8900      0.45631477
      46.9000      0.44156150
      46.9100      0.41693356
      46.9200      0.38214572
      46.9300      0.33787714
      46.9400      0.28570742
      46.9500      0.22792071
      46.9600      0.16732016
      46.9700      0.10686359
      46.9800     0.049462070
      46.9900   -0.0024150728
      47.0000    -0.046919402
      47.0100    -0.083018155
      47.0200     -0.11073470
      47.0300     -0.13094661
      47.0400     -0.14560084
      47.0500     -0.15730200
      47.0600     -0.16913320
      47.0700     -0.18438783
      47.0800     -0.20602167
      47.0900     -0.23631366
      47.1000     -0.27646523
      47.1100     -0.32629798
      47.1200     -0.38415583
      47.1300     -0.44695445
      47.1400     -0.51059859
      47.1500     -0.57019338
      47.1600     -0.62094972
      47.1700     -0.65870950
      47.1800     -0.68066387
      47.1900     -0.68580791
      47.2000     -0.67526857
      47.2100     -0.65217174
      47.2200     -0.62137435
      47.2300     -0.58890987
      47.2400     -0.56107837
      47.2500     -0.54356349
      47.2600     -0.54069739
      47.2700     -0.55468077
      47.2800     -0.58526935
      47.2900     -0.62981596
      47.3000     -0.68354161
      47.3100     -0.74012537
      47.3200     -0.79277957
      47.3300     -0.83498627
      47.3400     -0.86157444
      47.3500     -0.86929063
      47.3600     -0.85747265
      47.3700     -0.82787957
      47.3800     -0.78466790
      47.3900     -0.73366760
      47.4000     -0.68175649
      47.4100     -0.63574556
      47.4200     -0.60169779
      47.4300     -0.58396395
      47.4400     -0.58470926
      47.4500     -0.60357425
      47.4600     -0.63775340
      47.4700     -0.68230884
      47.4800     -0.73076026
      47.4900     -0.77580413
      47.5000     -0.81032481
      47.5100     -0.82813434
      47.5200     -0.82485355
      47.5300     -0.79842025
      47.5400     -0.74949297
      47.5500     -0.68130637
      47.5600     -0.59951615
      47.5700     -0.51140585
      47.5800     -0.42517744
      47.5900     -0.34872836
      47.6000     -0.28885558
      47.6100     -0.25019295
      47.6200     -0.23459880
      47.6300     -0.24080022
      47.6400     -0.26459406
      47.6500     -0.29919295
      47.6600     -0.33628404
      47.6700     -0.36714041
      47.6800     -0.38369664
      47.6900     -0.37987862
      47.7000     -0.35245014
      47.7100     -0.30137151
      47.7200     -0.22998282
      47.7300     -0.14427836
      47.7400    -0.052202252
      47.7500     0.037777199
      47.7600      0.11765772
      47.7700      0.18144323
      47.7800      0.22569463
      47.7900      0.25011092
      47.8000      0.25738413
      47.8100      0.25248099
      47.8200      0.24190257
      47.8300      0.23228653
      47.8400      0.22939511
      47.8500      0.23714025
      47.8600      0.25690124
      47.8700      0.28760180
      47.8800      0.32599763
      47.8900      0.36733376
      47.9000      0.40645995
      47.9100      0.43888745
      47.9200      0.46145978
      47.9300      0.47307976
      47.9400      0.47478460
      47.9500      0.46941815
      47.9600      0.46098167
      47.9700      0.45380892
      47.9800      0.45156255
      47.9900      0.45653481
      48.0000      0.46919836
      48.0100      0.48798952
      48.0200      0.50985149
      48.0300      0.53062722
      48.0400      0.54611093
      48.0500      0.55274657
      48.0600      0.54840785
      48.0700      0.53276682
      48.0800      0.50743837
      48.0900      0.47550825
      48.1000      0.44106405
      48.1100      0.40832021
      48.1200      0.38088471
      48.1300      0.36118555
      48.1400      0.34999334
      48.1500      0.34651776
      48.1600      0.34877230
      48.1700      0.35393088
      48.1800      0.35925151
      48.1900      0.36249080
      48.2000      0.36263089
      48.2100      0.35983595
      48.2200      0.35541995
      48.2300      0.35152026
      48.2400      0.35032165
      48.2500      0.35354674
      48.2600      0.36187787
      48.2700      0.37460972
      48.2800      0.38958605
      48.2900      0.40365066
      48.3000      0.41314435
      48.3100      0.41459960
      48.3200      0.40570575
      48.3300      0.38563226
      48.3400      0.35557009
      48.3500      0.31860452
      48.3600      0.27914875
      48.3700      0.24248401
      48.3800      0.21358364
      48.3900      0.19622004
      48.4000      0.19240341
      48.4100      0.20167600
      48.4200      0.22123985
      48.4300      0.24625833
      48.4400      0.27067470
      48.4500      0.28811991
      48.4600      0.29298609
      48.4700      0.28151415
      48.4800      0.25208416
      48.4900      0.20589930
      48.5000      0.14658572
      48.5100     0.079786867
      48.5200     0.012184883
      48.5300    -0.049265634
      48.5400    -0.098459610
      48.5500     -0.13081411
      48.5600     -0.14382220
      48.5700     -0.13715117
      48.5800     -0.11250039
      48.5900    -0.073237575
      48.6000    -0.023532452
      48.6100     0.031981208
      48.6200     0.089013790
      48.6300      0.14399248
      48.6400      0.19423017
      48.6500      0.23807439
      48.6600      0.27470395
      48.6700      0.30384921
      48.6800      0.32568231
      48.6900      0.34046286
      48.7000      0.34855867
      48.7100      0.35037068
      48.7200      0.34634167
      48.7300      0.33725043
      48.7400      0.32419490
      48.7500      0.30860952
      48.7600      0.29230026
      48.7700      0.27719813
      48.7800      0.26513421
      48.7900      0.25754820
      48.8000      0.25515883
      48.8100      0.25776110
      48.8200      0.26422508
      48.8300      0.27242233
      48.8400      0.27974956
      48.8500      0.28317793
      48.8600      0.27996016
      48.8700      0.26793676
      48.8800      0.24591479
      48.8900      0.21391070
      48.9000      0.17321384
      48.9100      0.12613856
      48.9200     0.075832281
      48.9300     0.025820473
      48.9400    -0.020391907
      48.9500    -0.059818530
      48.9600    -0.090206263
      48.9700     -0.11032585
      48.9800     -0.11994410
      48.9900     -0.11974490
      49.0000     -0.11123572
      49.0100    -0.096363824
      49.0200    -0.077342083
      49.0300    -0.056392371
      49.0400    -0.035565225
      49.0500    -0.016498271
      49.0600  -0.00061037282
      49.0700     0.011218286
      49.0800     0.018518933
      49.0900     0.021160334
      49.1000     0.019495793
      49.1100     0.014181234
      49.1200    0.0063637591
      49.1300   -0.0026078424
      49.1400    -0.011073396
      49.1500    -0.017325649
      49.1600    -0.019746706
      49.1700    -0.016989705
      49.1800   -0.0082630299
      49.1900    0.0064964972
      49.2000     0.026659986
      49.2100     0.050722654
      49.2200     0.076521266
      49.2300      0.10152762
      49.2400      0.12305945
      49.2500      0.13862482
      49.2600      0.14639198
      49.2700      0.14537328
      49.2800      0.13561492
      49.2900      0.11812846
      49.3000     0.094875408
      49.3100     0.068440930
      49.3200     0.041557836
      49.3300     0.016894290
      49.3400   -0.0035458619
      49.3500    -0.018542344
      49.3600    -0.027933212
      49.3700    -0.032506140
      49.3800    -0.033963631
      49.3900    -0.034602250
      49.4000    -0.036999933
      49.4100    -0.043517247
      49.4200    -0.056142848
      49.4300    -0.076039915
      49.4400     -0.10352648
      49.4500     -0.13805158
      49.4600     -0.17814170
      49.4700     -0.22188940
      49.4800     -0.26695582
      49.4900     -0.31093050
      49.5000     -0.35162783
      49.5100     -0.38723529
      49.5200     -0.41642417
      49.5300     -0.43847076
      49.5400     -0.45306495
      49.5500     -0.46040594
      49.5600     -0.46089490
      49.5700     -0.45510561
      49.5800     -0.44363582
      49.5900     -0.42702448
      49.6000     -0.40555138
      49.6100     -0.37951683
      49.6200     -0.34893376
      49.6300     -0.31377552
      49.6400     -0.27397757
      49.6500     -0.22953438
      49.6600     -0.18055051
      49.6700     -0.12731457
      49.6800    -0.070352939
      49.6900    -0.010532916
      49.7000     0.051143011
      49.7100      0.11324156
      49.7200      0.17425332
      49.7300      0.23248858
      49.7400      0.28615423
      49.7500      0.33362016
      49.7600      0.37349770
      49.7700      0.40451120
      49.7800      0.42605284
      49.7900      0.43784375
      49.8000      0.44016620
      49.8100      0.43368888
      49.8200      0.41948792
      49.8300      0.39880756
      49.8400      0.37298848
      49.8500      0.34318799
      49.8600      0.31021806
      49.8700      0.27451738
      49.8800      0.23605100
      49.8900      0.19427228
      49.9000      0.14838733
      49.9100     0.097400745
      49.9200     0.040481861
      49.9300    -0.022985879
      49.9400    -0.092845222
      49.9500     -0.16844920
      49.9600     -0.24818821
      49.9700     -0.32978976
      49.9800     -0.41057299
      49.9900     -0.48748127
