        1474
                                                                                
  0.50000000000000000      -0.66953900000000000     
  0.52000000000000002      -0.65524400000000005     
  0.54000000000000004      -0.65691400000000000     
  0.55999999999999994      -0.63993699999999998     
  0.57999999999999996      -0.65302300000000002     
  0.59999999999999998      -0.65751700000000002     
  0.62000000000000000      -0.69022200000000000     
  0.64000000000000001      -0.69513300000000000     
  0.65999999999999992      -0.70077000000000000     
  0.67999999999999994      -0.69241200000000003     
  0.69999999999999996      -0.69596499999999994     
  0.71999999999999997      -0.69520099999999996     
  0.73999999999999999      -0.69106599999999996     
  0.76000000000000001      -0.69098899999999996     
  0.78000000000000003      -0.68609500000000001     
  0.80000000000000004      -0.69184800000000002     
  0.82000000000000006      -0.69622600000000001     
  0.83999999999999997      -0.69337400000000005     
  0.85999999999999999      -0.68544799999999995     
  0.88000000000000000      -0.67887200000000003     
  0.89999999999999991      -0.67812200000000000     
  0.91999999999999993      -0.68544600000000000     
  0.93999999999999995      -0.67572800000000000     
  0.95999999999999996      -0.67697099999999999     
  0.97999999999999998      -0.67385200000000001     
   1.0000000000000000      -0.68501900000000004     
   1.0200000000000000      -0.67733800000000000     
   1.0400000000000000      -0.66898199999999997     
   1.0600000000000001      -0.66711799999999999     
   1.0800000000000001      -0.67473099999999997     
   1.1000000000000001      -0.67264299999999999     
   1.1200000000000001      -0.66692700000000005     
   1.1400000000000001      -0.66393800000000003     
   1.1600000000000001      -0.65187399999999995     
   1.1800000000000002      -0.64502099999999996     
   1.2000000000000000      -0.60850899999999997     
   1.2200000000000000      -0.55076899999999995     
   1.2400000000000000      -0.53479900000000002     
   1.2600000000000000      -0.58316500000000004     
   1.2800000000000000      -0.62517900000000004     
   1.3000000000000000      -0.64223200000000003     
   1.3199999999999998      -0.64352500000000001     
   1.3399999999999999      -0.64349500000000004     
   1.3599999999999999      -0.64545300000000005     
   1.3799999999999999      -0.64561100000000005     
   1.3999999999999999      -0.64494899999999999     
   1.4199999999999999      -0.64495300000000000     
   1.4399999999999999      -0.64268800000000004     
   1.4600000000000000      -0.64668800000000004     
   1.4800000000000000      -0.64602199999999999     
   1.5000000000000000      -0.63985899999999996     
   1.5200000000000000      -0.64281900000000003     
   1.5400000000000000      -0.64152200000000004     
   1.5600000000000001      -0.63766800000000001     
   1.5800000000000001      -0.63829100000000005     
   1.6000000000000001      -0.63588999999999996     
   1.6200000000000001      -0.61678699999999997     
   1.6399999999999999      -0.58074700000000001     
   1.6599999999999999      -0.43186300000000000     
   1.6799999999999999       -9.5675999999999997E-002
   1.7000000000000000       0.17256500000000000     
   1.7200000000000000        5.5821000000000003E-002
   1.7400000000000000      -0.24368899999999999     
   1.7600000000000000      -0.47040500000000002     
   1.7800000000000000      -0.57883300000000004     
   1.8000000000000000      -0.61017299999999997     
   1.8200000000000001      -0.61941100000000004     
   1.8400000000000001      -0.62299599999999999     
   1.8600000000000001      -0.61968999999999996     
   1.8800000000000001      -0.60951999999999995     
   1.8999999999999999      -0.58559899999999998     
   1.9199999999999999      -0.48694700000000002     
   1.9399999999999999      -0.15240500000000001     
   1.9600000000000000       0.60078699999999996     
   1.9800000000000000        1.5537960000000000     
   2.0000000000000000        1.5401890000000000     
   2.0200000000000000       0.37932500000000002     
   2.0400000000000000      -0.29190600000000000     
   2.0600000000000001      -0.50263800000000003     
   2.0800000000000001      -0.54723500000000003     
   2.1000000000000001      -0.54061300000000001     
   2.1200000000000001      -0.51426099999999997     
   2.1400000000000001      -0.49813000000000002     
   2.1600000000000001      -0.46887299999999998     
   2.1799999999999997      -0.34352400000000000     
   2.2000000000000002       -9.7489000000000006E-002
   2.2199999999999998        6.0469000000000002E-002
   2.2400000000000002      -0.24079700000000001     
   2.2599999999999998      -0.50419999999999998     
   2.2800000000000002      -0.59983699999999995     
   2.2999999999999998      -0.61899800000000005     
   2.3200000000000003      -0.62298399999999998     
   2.3399999999999999      -0.62361699999999998     
   2.3600000000000003      -0.59549799999999997     
   2.3799999999999999      -0.52837500000000004     
   2.3999999999999999      -0.43365700000000001     
   2.4199999999999999      -0.41710700000000001     
   2.4399999999999999      -0.47612399999999999     
   2.4600000000000000      -0.47824899999999998     
   2.4800000000000000      -0.39843299999999998     
   2.5000000000000000      -0.23677200000000001     
   2.5200000000000000      -0.12193500000000000     
   2.5400000000000000      -0.33082299999999998     
   2.5600000000000001      -0.52562500000000001     
   2.5800000000000001      -0.59216500000000005     
   2.6000000000000001      -0.61064200000000002     
   2.6200000000000001      -0.60866699999999996     
   2.6400000000000001      -0.59112900000000002     
   2.6600000000000001      -0.51304700000000003     
   2.6800000000000002      -0.37183699999999997     
   2.7000000000000002      -0.25109900000000002     
   2.7200000000000002       -4.6864000000000003E-002
   2.7400000000000002       0.46069800000000000     
   2.7600000000000002       0.70447499999999996     
   2.7800000000000002       0.16746700000000000     
   2.7999999999999998      -0.10943100000000000     
   2.8199999999999998        3.4103000000000001E-002
   2.8399999999999999       0.44602799999999998     
   2.8599999999999999       0.82035000000000002     
   2.8799999999999999        1.0588900000000001     
   2.8999999999999999       0.50906600000000002     
   2.9199999999999999      -0.15860299999999999     
   2.9399999999999999      -0.42970500000000000     
   2.9600000000000000      -0.52137299999999998     
   2.9800000000000000      -0.53910999999999998     
   3.0000000000000000      -0.52338899999999999     
   3.0200000000000000      -0.48551000000000000     
   3.0400000000000000      -0.38334800000000002     
   3.0600000000000001      -0.21738900000000000     
   3.0800000000000001       0.24656300000000000     
   3.1000000000000001        1.1858139999999999     
   3.1200000000000001        1.4231540000000000     
   3.1400000000000001       0.65998400000000002     
   3.1600000000000001       0.14657999999999999     
   3.1800000000000002      -0.22460300000000000     
   3.2000000000000002      -0.45043299999999997     
   3.2200000000000002      -0.52813399999999999     
   3.2400000000000002      -0.55467299999999997     
   3.2600000000000002      -0.56766300000000003     
   3.2800000000000002      -0.56218999999999997     
   3.2999999999999998      -0.52397099999999996     
   3.3199999999999998      -0.45289099999999999     
   3.3399999999999999      -0.25318800000000002     
   3.3599999999999999       0.19831399999999999     
   3.3799999999999999        1.0026640000000000     
   3.3999999999999999        1.8060890000000001     
   3.4199999999999999        1.9204470000000000     
   3.4399999999999999        2.5016189999999998     
   3.4600000000000000        3.6908880000000002     
   3.4800000000000000        3.7201590000000002     
   3.5000000000000000        2.7017449999999998     
   3.5200000000000000        1.4867589999999999     
   3.5400000000000000       0.67060500000000001     
   3.5600000000000001       -2.5350999999999999E-002
   3.5800000000000001      -0.35793300000000000     
   3.6000000000000001      -0.47751300000000002     
   3.6200000000000001      -0.50833799999999996     
   3.6400000000000001      -0.47438300000000000     
   3.6600000000000001      -0.35075600000000001     
   3.6800000000000002       -5.8388000000000002E-002
   3.7000000000000002       0.51033899999999999     
   3.7200000000000002       0.74628700000000003     
   3.7400000000000002       0.30195300000000003     
   3.7600000000000002       0.25358199999999997     
   3.7800000000000002       0.78914300000000004     
   3.8000000000000003        1.3395649999999999     
   3.8199999999999998        1.0401199999999999     
   3.8399999999999999       0.42131700000000000     
   3.8599999999999999       -5.5216000000000001E-002
   3.8799999999999999      -0.12335000000000000     
   3.8999999999999999        7.1995000000000003E-002
   3.9199999999999999       -3.6907000000000002E-002
   3.9399999999999999      -0.27206500000000000     
   3.9600000000000000      -0.35288000000000003     
   3.9800000000000000      -0.42007600000000000     
   4.0000000000000000      -0.39453899999999997     
   4.0199999999999996      -0.19998400000000000     
   4.0400000000000000       0.34149200000000002     
   4.0600000000000005        1.5747990000000001     
   4.0800000000000001        2.3182999999999998     
   4.0999999999999996        1.1582870000000001     
   4.1200000000000001       0.10397000000000001     
   4.1400000000000006      -0.24986300000000000     
   4.1600000000000001      -0.29527100000000001     
   4.1799999999999997      -0.31422699999999998     
   4.2000000000000002      -0.26228299999999999     
   4.2200000000000006      -0.15011200000000000     
   4.2400000000000002       0.38099899999999998     
   4.2599999999999998       0.62360300000000002     
   4.2800000000000002      -0.15453300000000000     
   4.3000000000000007      -0.40454699999999999     
   4.3200000000000003      -0.34354800000000002     
   4.3399999999999999      -0.20802899999999999     
   4.3599999999999994      -0.32107000000000002     
   4.3799999999999999      -0.19477100000000000     
   4.4000000000000004      -0.10791000000000001     
   4.4199999999999999       -6.3563999999999996E-002
   4.4399999999999995      -0.27500500000000000     
   4.4600000000000000      -0.53693400000000002     
   4.4800000000000004      -0.62363299999999999     
   4.5000000000000000      -0.65386299999999997     
   4.5199999999999996      -0.66522599999999998     
   4.5400000000000009      -0.66547400000000001     
   4.5600000000000005      -0.65234000000000003     
   4.5800000000000001      -0.62708100000000000     
   4.5999999999999996      -0.57254499999999997     
   4.6199999999999992      -0.48128599999999999     
   4.6400000000000006      -0.26653900000000003     
   4.6600000000000001      -0.10085800000000000     
   4.6799999999999997      -0.19386000000000000     
   4.6999999999999993      -0.18648899999999999     
   4.7200000000000006       -8.2084000000000004E-002
   4.7400000000000002       0.37870700000000002     
   4.7599999999999998       0.44413999999999998     
   4.7799999999999994      -0.11250000000000000     
   4.8000000000000007      -0.28966100000000000     
   4.8200000000000003      -0.28753099999999998     
   4.8399999999999999      -0.27737000000000001     
   4.8599999999999994      -0.24065900000000001     
   4.8800000000000008       -6.3520999999999994E-002
   4.9000000000000004      -0.15960500000000000     
   4.9199999999999999      -0.12979099999999999     
   4.9399999999999995       0.20171900000000001     
   4.9600000000000009       0.63314999999999999     
   4.9800000000000004       0.94242700000000001     
   5.0000000000000000       0.36629899999999999     
   5.0199999999999996       -8.4718000000000002E-002
   5.0400000000000009      -0.18062600000000001     
   5.0600000000000005       -4.8028000000000001E-002
   5.0800000000000001       0.44393700000000003     
   5.0999999999999996       0.58051100000000000     
   5.1199999999999992        1.0214000000000001E-002
   5.1400000000000006      -0.14332700000000001     
   5.1600000000000001       -9.1437000000000004E-002
   5.1799999999999997       -5.9182999999999999E-002
   5.1999999999999993      -0.32884500000000000     
   5.2200000000000006      -0.53208000000000000     
   5.2400000000000002      -0.59137600000000001     
   5.2599999999999998      -0.59628599999999998     
   5.2799999999999994      -0.59772099999999995     
   5.3000000000000007      -0.60086099999999998     
   5.3200000000000003      -0.56556700000000004     
   5.3399999999999999      -0.47655500000000001     
   5.3599999999999994      -0.28335900000000003     
   5.3800000000000008       0.13499400000000000     
   5.4000000000000004       0.36622800000000000     
   5.4199999999999999       0.27376499999999998     
   5.4399999999999995      -0.10884800000000000     
   5.4600000000000009      -0.22456899999999999     
   5.4800000000000004      -0.41221700000000000     
   5.5000000000000000      -0.46318300000000001     
   5.5199999999999996      -0.50084099999999998     
   5.5400000000000009      -0.48508400000000002     
   5.5600000000000005      -0.33274799999999999     
   5.5800000000000001      -0.14698800000000001     
   5.5999999999999996      -0.17769399999999999     
   5.6199999999999992       -9.4552999999999998E-002
   5.6400000000000006        8.6020000000000003E-003
   5.6600000000000001       0.31224900000000000     
   5.6799999999999997       0.76679900000000001     
   5.6999999999999993       0.56611599999999995     
   5.7200000000000006       0.20683399999999999     
   5.7400000000000002       0.25686500000000001     
   5.7599999999999998       0.48468000000000000     
   5.7799999999999994       0.29777500000000001     
   5.8000000000000007       -6.0270999999999998E-002
   5.8200000000000003      -0.31894299999999998     
   5.8399999999999999      -0.40907300000000002     
   5.8599999999999994      -0.37128600000000000     
   5.8800000000000008      -0.40099600000000002     
   5.9000000000000004      -0.38195600000000002     
   5.9199999999999999      -0.21317900000000001     
   5.9399999999999995        2.9947000000000001E-002
   5.9600000000000009       0.29646299999999998     
   5.9800000000000004        4.0587999999999999E-002
   6.0000000000000000        1.3691999999999999E-002
   6.0199999999999996       0.10138300000000000     
   6.0400000000000009       0.19118199999999999     
   6.0600000000000005       0.54506500000000002     
   6.0800000000000001        1.0314610000000000     
   6.0999999999999996       0.94594900000000004     
   6.1199999999999992       0.40072400000000002     
   6.1400000000000006       -2.7014000000000000E-002
   6.1600000000000001      -0.19386400000000001     
   6.1799999999999997      -0.14762600000000001     
   6.1999999999999993       -8.0739000000000005E-002
   6.2200000000000006       -9.6744999999999998E-002
   6.2400000000000002      -0.10689400000000000     
   6.2599999999999998       -9.2510000000000005E-003
   6.2799999999999994       0.38757799999999998     
   6.3000000000000007       0.56472100000000003     
   6.3200000000000003       0.38264399999999998     
   6.3399999999999999        2.4381000000000000E-002
   6.3599999999999994       -5.5702000000000002E-002
   6.3800000000000008        2.4077999999999999E-002
   6.4000000000000004       -6.3260999999999998E-002
   6.4199999999999999      -0.23443600000000001     
   6.4399999999999995      -0.30343500000000001     
   6.4600000000000009      -0.25952399999999998     
   6.4800000000000004      -0.12322500000000000     
   6.5000000000000000        7.4279999999999997E-003
   6.5199999999999996        6.3020000000000007E-002
   6.5400000000000009        3.0301999999999999E-002
   6.5600000000000005      -0.11440300000000000     
   6.5800000000000001      -0.18903900000000001     
   6.5999999999999996      -0.12572500000000000     
   6.6200000000000010        5.0646999999999998E-002
   6.6400000000000006        9.2127000000000001E-002
   6.6600000000000001       -8.5286000000000001E-002
   6.6799999999999997       -2.1395000000000001E-002
   6.6999999999999993       0.25268699999999999     
   6.7200000000000006       0.55382699999999996     
   6.7400000000000002       0.67002700000000004     
   6.7599999999999998       0.83116299999999999     
   6.7799999999999994       0.60231400000000002     
   6.8000000000000007       0.29310399999999998     
   6.8200000000000003       -4.4099999999999999E-004
   6.8399999999999999      -0.23317700000000000     
   6.8599999999999994      -0.25752599999999998     
   6.8800000000000008      -0.24348200000000000     
   6.9000000000000004      -0.24612500000000001     
   6.9199999999999999      -0.16198599999999999     
   6.9399999999999995       -7.4199000000000001E-002
   6.9600000000000009        2.7200000000000000E-004
   6.9800000000000004        7.2002999999999998E-002
   7.0000000000000000       0.13467999999999999     
   7.0199999999999996        7.3571999999999999E-002
   7.0400000000000009       0.17422299999999999     
   7.0600000000000005       0.52844300000000000     
   7.0800000000000001        1.0741609999999999     
   7.0999999999999996        1.0472910000000000     
   7.1200000000000010       0.42705700000000002     
   7.1400000000000006        5.7257000000000002E-002
   7.1600000000000001        1.7874000000000001E-002
   7.1799999999999997        1.2017999999999999E-002
   7.1999999999999993       -1.0820000000000000E-002
   7.2200000000000006       -1.3849000000000000E-002
   7.2400000000000002       -3.3131000000000001E-002
   7.2599999999999998       -8.3582000000000004E-002
   7.2799999999999994       -3.0438000000000000E-002
   7.3000000000000007       -1.4172000000000001E-002
   7.3200000000000003       -4.6004999999999997E-002
   7.3399999999999999        2.7916000000000000E-002
   7.3599999999999994        4.2675999999999999E-002
   7.3800000000000008        1.8439000000000001E-002
   7.4000000000000004        7.0660000000000001E-002
   7.4199999999999999       0.21064300000000000     
   7.4399999999999995       0.10176000000000000     
   7.4600000000000009       -7.6690999999999995E-002
   7.4800000000000004       -8.9677999999999994E-002
   7.5000000000000000       -3.1975000000000003E-002
   7.5199999999999996       -7.0895000000000000E-002
   7.5400000000000009      -0.11681700000000000     
   7.5600000000000005       -6.1719999999999997E-002
   7.5800000000000001        5.0319000000000003E-002
   7.5999999999999996       0.13553799999999999     
   7.6200000000000010       0.21070400000000000     
   7.6400000000000006       0.20865800000000001     
   7.6600000000000001        8.5037000000000001E-002
   7.6799999999999997        4.0445000000000002E-002
   7.6999999999999993        9.8930000000000008E-003
   7.7200000000000006       -4.4554999999999997E-002
   7.7400000000000002      -0.10800000000000000     
   7.7599999999999998      -0.13248299999999999     
   7.7799999999999994        2.6054000000000001E-002
   7.8000000000000007       0.22225900000000001     
   7.8200000000000003       0.10738800000000000     
   7.8399999999999999      -0.14913100000000001     
   7.8599999999999994      -0.27270800000000001     
   7.8800000000000008      -0.26688600000000001     
   7.9000000000000004      -0.24768200000000001     
   7.9199999999999999      -0.32452700000000001     
   7.9399999999999995      -0.41481600000000002     
   7.9600000000000009      -0.45554400000000000     
   7.9800000000000004      -0.45724799999999999     
   8.0000000000000000      -0.42181299999999999     
   8.0199999999999996      -0.33602900000000002     
   8.0400000000000009      -0.18728300000000001     
   8.0600000000000005       -1.6239000000000000E-002
   8.0800000000000001        8.5987999999999995E-002
   8.0999999999999996        1.9268000000000000E-002
   8.1200000000000010       -8.2475000000000007E-002
   8.1400000000000006      -0.14633900000000000     
   8.1600000000000001      -0.22198399999999999     
   8.1799999999999997      -0.29735400000000001     
   8.1999999999999993      -0.30297600000000002     
   8.2200000000000006      -0.19487099999999999     
   8.2400000000000002        7.5700000000000003E-003
   8.2599999999999998       0.12343300000000000     
   8.2799999999999994       -3.9049000000000000E-002
   8.3000000000000007      -0.15980900000000001     
   8.3200000000000003      -0.14623900000000001     
   8.3399999999999999      -0.13449700000000001     
   8.3599999999999994      -0.15391400000000000     
   8.3800000000000008      -0.20219400000000001     
   8.4000000000000004      -0.30715799999999999     
   8.4199999999999999      -0.36497499999999999     
   8.4399999999999995      -0.38727899999999998     
   8.4600000000000009      -0.35409299999999999     
   8.4800000000000004      -0.30373499999999998     
   8.5000000000000000      -0.21587999999999999     
   8.5200000000000014      -0.19609299999999999     
   8.5400000000000009      -0.23116400000000001     
   8.5600000000000005      -0.27176400000000001     
   8.5800000000000001      -0.27410400000000001     
   8.6000000000000014      -0.23058500000000001     
   8.6200000000000010      -0.11241600000000000     
   8.6400000000000006        8.2692000000000002E-002
   8.6600000000000001       0.26931500000000003     
   8.6799999999999997       0.34727300000000000     
   8.7000000000000011       0.32163500000000000     
   8.7200000000000006       0.28652100000000003     
   8.7400000000000002       0.26553300000000002     
   8.7599999999999998       0.12597000000000000     
   8.7800000000000011       -6.1624999999999999E-002
   8.8000000000000007      -0.17019999999999999     
   8.8200000000000003      -0.16760000000000000     
   8.8399999999999999      -0.14041600000000001     
   8.8600000000000012       -5.0427000000000000E-002
   8.8800000000000008       0.11573000000000000     
   8.9000000000000004       0.23803700000000000     
   8.9199999999999999       0.35365200000000002     
   8.9400000000000013       0.39316000000000001     
   8.9600000000000009       0.27349099999999998     
   8.9800000000000004        3.2904000000000003E-002
   9.0000000000000000      -0.11340900000000000     
   9.0200000000000014      -0.17346000000000000     
   9.0400000000000009      -0.20953700000000000     
   9.0600000000000005      -0.21636100000000000     
   9.0800000000000001      -0.11982300000000000     
   9.1000000000000014        2.2376000000000000E-002
   9.1200000000000010       0.11609600000000000     
   9.1400000000000006       0.15305099999999999     
   9.1600000000000001       0.11459400000000000     
   9.1800000000000015        7.8383999999999995E-002
   9.2000000000000011       0.13669000000000001     
   9.2200000000000006       0.23118100000000000     
   9.2400000000000002       0.21156700000000001     
   9.2599999999999998        4.4347999999999999E-002
   9.2800000000000011      -0.10196200000000000     
   9.3000000000000007      -0.13498199999999999     
   9.3200000000000003       -6.3260999999999998E-002
   9.3399999999999999        7.5311000000000003E-002
   9.3600000000000012       0.18029500000000001     
   9.3800000000000008       0.22008800000000001     
   9.4000000000000004       0.20306500000000000     
   9.4199999999999999       0.15377800000000000     
   9.4400000000000013       0.15326799999999999     
   9.4600000000000009       0.17669899999999999     
   9.4800000000000004       0.16625100000000001     
   9.5000000000000000        8.0561999999999995E-002
   9.5200000000000014        7.7422000000000005E-002
   9.5400000000000009       0.18443000000000001     
   9.5600000000000005       0.32238400000000000     
   9.5800000000000001       0.31867299999999998     
   9.6000000000000014       0.21210699999999999     
   9.6200000000000010       0.13484199999999999     
   9.6400000000000006       0.11477100000000000     
   9.6600000000000001       0.10239100000000000     
   9.6800000000000015        4.5844999999999997E-002
   9.7000000000000011       -1.5966999999999999E-002
   9.7200000000000006       -2.3202000000000000E-002
   9.7400000000000002       -9.3679999999999996E-003
   9.7599999999999998        1.9281000000000000E-002
   9.7800000000000011        3.7999999999999999E-002
   9.8000000000000007        4.3854999999999998E-002
   9.8200000000000003        8.2610000000000003E-002
   9.8399999999999999       0.14923100000000000     
   9.8600000000000012       0.22506000000000001     
   9.8800000000000008       0.33516000000000001     
   9.9000000000000004       0.37560199999999999     
   9.9199999999999999       0.32761099999999999     
   9.9400000000000013       0.28678300000000001     
   9.9600000000000009       0.27743000000000001     
   9.9800000000000004       0.31084499999999998     
   10.000000000000000       0.30850300000000003     
   10.020000000000001       0.19625000000000001     
   10.040000000000001        4.1994999999999998E-002
   10.060000000000000       -5.2150000000000002E-002
   10.080000000000000      -0.13179900000000000     
   10.100000000000001      -0.18964900000000001     
   10.120000000000001      -0.16538200000000000     
   10.140000000000001      -0.10735699999999999     
   10.160000000000000       -9.6617999999999996E-002
   10.180000000000001      -0.10992800000000000     
   10.200000000000001       -9.9823999999999996E-002
   10.220000000000001       -6.1879000000000003E-002
   10.240000000000000       -3.4536999999999998E-002
   10.260000000000000       -4.6766000000000002E-002
   10.280000000000001       -9.3237000000000000E-002
   10.300000000000001      -0.10611200000000000     
   10.320000000000000       -8.8537000000000005E-002
   10.340000000000000       -3.3168000000000003E-002
   10.360000000000001       -2.6675000000000001E-002
   10.380000000000001       -8.2541000000000003E-002
   10.400000000000000       -8.5569000000000006E-002
   10.420000000000000       -1.5153000000000000E-002
   10.440000000000001        9.1672000000000003E-002
   10.460000000000001       0.17272299999999999     
   10.480000000000000       0.16324400000000000     
   10.500000000000000       0.10561400000000000     
   10.520000000000001        8.2504999999999995E-002
   10.540000000000001        9.6641000000000005E-002
   10.560000000000000        6.3225000000000003E-002
   10.580000000000000       -9.9880000000000004E-003
   10.600000000000001       -3.9796999999999999E-002
   10.620000000000001       -5.3804999999999999E-002
   10.640000000000001      -0.11467100000000000     
   10.660000000000000      -0.20297999999999999     
   10.680000000000001      -0.25254900000000002     
   10.700000000000001      -0.28110099999999999     
   10.720000000000001      -0.29371599999999998     
   10.740000000000000      -0.31483499999999998     
   10.760000000000000      -0.34574500000000002     
   10.780000000000001      -0.36046200000000000     
   10.800000000000001      -0.35208899999999999     
   10.820000000000000      -0.31892100000000001     
   10.840000000000000      -0.28364499999999998     
   10.860000000000001      -0.26739800000000002     
   10.880000000000001      -0.23121700000000001     
   10.900000000000000      -0.17131900000000000     
   10.920000000000000      -0.15773499999999999     
   10.940000000000001      -0.15334800000000001     
   10.960000000000001      -0.14814700000000000     
   10.980000000000000       -9.9427000000000001E-002
   11.000000000000000       -4.2721000000000002E-002
   11.020000000000001       -3.8060999999999998E-002
   11.040000000000001       -7.2562000000000001E-002
   11.060000000000000       -7.1568999999999994E-002
   11.080000000000000       -2.5905000000000001E-002
   11.100000000000001        2.0015999999999999E-002
   11.120000000000001        3.3111000000000002E-002
   11.140000000000001        1.3879000000000001E-002
   11.160000000000000       -2.3529000000000001E-002
   11.180000000000001       -5.3135000000000002E-002
   11.200000000000001       -2.2731000000000001E-002
   11.220000000000001        5.9847999999999998E-002
   11.240000000000000       0.12895799999999999     
   11.260000000000000       0.12269600000000000     
   11.280000000000001        6.9714999999999999E-002
   11.300000000000001        1.8051999999999999E-002
   11.320000000000000       -8.6459999999999992E-003
   11.340000000000000        1.0300000000000000E-002
   11.360000000000001        6.1348000000000000E-002
   11.380000000000001        9.9927000000000002E-002
   11.400000000000000        9.9866999999999997E-002
   11.420000000000000        6.9887000000000005E-002
   11.440000000000001        7.8399999999999997E-003
   11.460000000000001       -2.4143000000000001E-002
   11.480000000000000       -3.2872999999999999E-002
   11.500000000000000       -6.4796999999999993E-002
   11.520000000000001       -8.2793000000000005E-002
   11.540000000000001       -9.4694000000000000E-002
   11.560000000000000       -9.5089000000000007E-002
   11.580000000000000       -6.4094999999999999E-002
   11.600000000000001       -4.5981000000000001E-002
   11.620000000000001       -6.5415000000000001E-002
   11.640000000000001       -9.9557000000000007E-002
   11.660000000000000      -0.11936500000000000     
   11.680000000000001      -0.12814800000000001     
   11.700000000000001      -0.11496199999999999     
   11.720000000000001      -0.11650900000000000     
   11.740000000000000      -0.12638099999999999     
   11.760000000000000      -0.15823300000000001     
   11.780000000000001      -0.20452100000000001     
   11.800000000000001      -0.20745800000000000     
   11.820000000000000      -0.18028800000000000     
   11.840000000000000      -0.12275100000000000     
   11.860000000000001       -5.6697999999999998E-002
   11.880000000000001        1.5458000000000000E-002
   11.900000000000000        8.7416999999999995E-002
   11.920000000000000       0.16707700000000000     
   11.940000000000001       0.17589199999999999     
   11.960000000000001       0.15341199999999999     
   11.980000000000000       0.10814600000000001     
   12.000000000000000        8.9567999999999995E-002
   12.020000000000001       0.12189500000000000     
   12.040000000000001       0.16353899999999999     
   12.060000000000000       0.20484600000000000     
   12.080000000000000       0.21367600000000000     
   12.100000000000001       0.23956300000000000     
   12.120000000000001       0.26122800000000002     
   12.140000000000001       0.24856300000000001     
   12.160000000000000       0.19764200000000001     
   12.180000000000001       0.15223300000000001     
   12.200000000000001       0.11529900000000000     
   12.220000000000001        8.3538000000000001E-002
   12.240000000000000        1.7373000000000000E-002
   12.260000000000000       -4.2868999999999997E-002
   12.280000000000001       -7.9963999999999993E-002
   12.300000000000001      -0.10013300000000000     
   12.320000000000000      -0.13219700000000001     
   12.340000000000000      -0.15118799999999999     
   12.360000000000001      -0.15086300000000000     
   12.380000000000001      -0.12643399999999999     
   12.400000000000000      -0.10402200000000000     
   12.420000000000000      -0.12377800000000000     
   12.440000000000001      -0.12778000000000000     
   12.460000000000001      -0.11445700000000000     
   12.480000000000000       -8.9179999999999995E-002
   12.500000000000000       -7.8999000000000000E-002
   12.520000000000001       -7.2323999999999999E-002
   12.540000000000001       -4.5322000000000001E-002
   12.560000000000000        2.8530000000000001E-003
   12.580000000000000        5.6329999999999998E-002
   12.600000000000001       0.10004399999999999     
   12.620000000000001        9.8142999999999994E-002
   12.640000000000001        7.6825000000000004E-002
   12.660000000000000        4.9602000000000000E-002
   12.680000000000001        1.4402000000000000E-002
   12.700000000000001        1.2253999999999999E-002
   12.720000000000001        2.4892999999999998E-002
   12.740000000000000        6.9432999999999995E-002
   12.760000000000002       0.12024500000000000     
   12.780000000000001       0.12313100000000000     
   12.800000000000001        6.0665999999999998E-002
   12.820000000000000       -1.8616000000000001E-002
   12.840000000000000       -4.2639999999999997E-002
   12.860000000000001       -1.4406000000000000E-002
   12.880000000000001        4.8821000000000003E-002
   12.900000000000000       0.11780400000000001     
   12.920000000000000       0.15312700000000001     
   12.940000000000001       0.16174700000000000     
   12.960000000000001       0.16266000000000000     
   12.980000000000000       0.16648900000000000     
   13.000000000000000       0.17435300000000001     
   13.020000000000001       0.17533699999999999     
   13.040000000000001       0.15688900000000000     
   13.060000000000000       0.11540400000000001     
   13.080000000000000        8.9065000000000005E-002
   13.100000000000001        9.9451999999999999E-002
   13.120000000000001       0.12948699999999999     
   13.140000000000001       0.15045800000000001     
   13.160000000000000       0.13428200000000001     
   13.180000000000001        9.3050999999999995E-002
   13.200000000000001        6.6695000000000004E-002
   13.220000000000001        6.8691000000000002E-002
   13.240000000000000        6.9213999999999998E-002
   13.260000000000002        9.8066000000000000E-002
   13.280000000000001       0.11894800000000000     
   13.300000000000001        9.1706999999999997E-002
   13.320000000000000        1.1346999999999999E-002
   13.340000000000000       -8.1098000000000003E-002
   13.360000000000001      -0.15165799999999999     
   13.380000000000001      -0.19003400000000001     
   13.400000000000000      -0.20344100000000001     
   13.420000000000000      -0.20445099999999999     
   13.440000000000001      -0.17940700000000001     
   13.460000000000001      -0.14478400000000000     
   13.480000000000000       -8.8871000000000006E-002
   13.500000000000000       -4.2573000000000000E-002
   13.520000000000001       -1.5751000000000001E-002
   13.540000000000001       -2.1790000000000000E-002
   13.560000000000000       -4.2244999999999998E-002
   13.580000000000000       -6.4794000000000004E-002
   13.600000000000001       -8.4224999999999994E-002
   13.620000000000001       -8.4523000000000001E-002
   13.640000000000001       -9.1130000000000003E-002
   13.660000000000000      -0.11291600000000000     
   13.680000000000001      -0.12080100000000001     
   13.700000000000001      -0.13581099999999999     
   13.720000000000001      -0.15502099999999999     
   13.740000000000000      -0.18249399999999999     
   13.760000000000002      -0.22028200000000001     
   13.780000000000001      -0.24277299999999999     
   13.800000000000001      -0.24468599999999999     
   13.820000000000000      -0.22093399999999999     
   13.840000000000000      -0.18260399999999999     
   13.860000000000001      -0.13371100000000000     
   13.880000000000001       -8.1447000000000006E-002
   13.900000000000000       -4.7251000000000001E-002
   13.920000000000000       -3.8386999999999998E-002
   13.940000000000001       -3.7136000000000002E-002
   13.960000000000001       -5.0202999999999998E-002
   13.980000000000000       -6.8932999999999994E-002
   14.000000000000000       -8.6970000000000006E-002
   14.020000000000001      -0.11076600000000000     
   14.040000000000001      -0.11581900000000001     
   14.060000000000000       -9.4426999999999997E-002
   14.080000000000000       -6.3963999999999993E-002
   14.100000000000001       -4.0287999999999997E-002
   14.120000000000001       -3.2400999999999999E-002
   14.140000000000001       -3.1505999999999999E-002
   14.160000000000000       -3.6806999999999999E-002
   14.180000000000001       -3.3493000000000002E-002
   14.200000000000001       -3.5029999999999999E-002
   14.220000000000001       -3.3316999999999999E-002
   14.240000000000000       -4.2709999999999998E-002
   14.260000000000002       -4.9471000000000001E-002
   14.280000000000001       -5.4468999999999997E-002
   14.300000000000001       -7.2577000000000003E-002
   14.320000000000000       -7.5998999999999997E-002
   14.340000000000000       -8.4625000000000006E-002
   14.360000000000001       -8.4147000000000000E-002
   14.380000000000001       -6.6874000000000003E-002
   14.400000000000000       -5.4803999999999999E-002
   14.420000000000000       -4.8169999999999998E-002
   14.440000000000001       -6.4446000000000003E-002
   14.460000000000001       -8.5885000000000003E-002
   14.480000000000000       -9.4982999999999998E-002
   14.500000000000000       -9.5362000000000002E-002
   14.520000000000001       -8.2414000000000001E-002
   14.540000000000001       -7.7966999999999995E-002
   14.560000000000000       -6.4796000000000006E-002
   14.580000000000000       -4.1623000000000000E-002
   14.600000000000001       -4.9890000000000004E-003
   14.620000000000001        4.3067000000000001E-002
   14.640000000000001        7.9455999999999999E-002
   14.660000000000000       0.11065100000000000     
   14.680000000000001       0.11165799999999999     
   14.700000000000001       0.10319399999999999     
   14.720000000000001        7.6963000000000004E-002
   14.740000000000000        5.6259999999999998E-002
   14.760000000000002        3.6678000000000002E-002
   14.780000000000001        1.1960999999999999E-002
   14.800000000000001       -1.0305000000000000E-002
   14.820000000000000       -1.5169999999999999E-002
   14.840000000000000        1.7454000000000001E-002
   14.860000000000001        5.5494000000000002E-002
   14.880000000000001        9.0889999999999999E-002
   14.900000000000000       0.10001500000000001     
   14.920000000000000        9.2321000000000000E-002
   14.940000000000001        7.6068999999999998E-002
   14.960000000000001        5.6533000000000000E-002
   14.980000000000000        2.5964000000000001E-002
   15.000000000000000       -1.1967000000000000E-002
   15.020000000000001       -4.7148000000000002E-002
   15.040000000000001       -7.0523000000000002E-002
   15.060000000000000       -9.2438999999999993E-002
   15.080000000000000       -8.9941999999999994E-002
   15.100000000000001       -7.3948000000000000E-002
   15.120000000000001       -4.5402999999999999E-002
   15.140000000000001       -1.2468999999999999E-002
   15.160000000000000        1.1915000000000000E-002
   15.180000000000001        2.6919999999999999E-002
   15.200000000000001        1.0887000000000001E-002
   15.220000000000001       -1.4984000000000001E-002
   15.240000000000000       -3.9605000000000001E-002
   15.260000000000002       -5.8455000000000000E-002
   15.280000000000001       -5.7514000000000003E-002
   15.300000000000001       -4.0593999999999998E-002
   15.320000000000000       -2.0409000000000000E-002
   15.340000000000000        1.6247000000000001E-002
   15.360000000000001        1.9203999999999999E-002
   15.380000000000001        2.1628000000000001E-002
   15.400000000000000        2.8284000000000000E-002
   15.420000000000000        3.2316999999999999E-002
   15.440000000000001        5.5961999999999998E-002
   15.460000000000001        8.1818000000000002E-002
   15.480000000000000       0.10683300000000000     
   15.500000000000000       0.11218000000000000     
   15.520000000000001       0.10609499999999999     
   15.540000000000001        8.9064000000000004E-002
   15.560000000000000        9.2509999999999995E-002
   15.580000000000000        8.5724999999999996E-002
   15.600000000000001        7.7266000000000001E-002
   15.620000000000001        5.4203000000000001E-002
   15.640000000000001        1.8394000000000001E-002
   15.660000000000000       -8.6770000000000007E-003
   15.680000000000001       -4.0356999999999997E-002
   15.700000000000001       -5.0967999999999999E-002
   15.720000000000001       -3.5777999999999997E-002
   15.740000000000000       -2.4487999999999999E-002
   15.760000000000002        6.3980000000000000E-003
   15.780000000000001        3.8272000000000000E-002
   15.800000000000001        7.9193000000000000E-002
   15.820000000000000       0.10384699999999999     
   15.840000000000000       0.12926399999999999     
   15.860000000000001       0.12072200000000000     
   15.880000000000001       0.10188400000000000     
   15.900000000000000        6.2518000000000004E-002
   15.920000000000000        1.9515999999999999E-002
   15.940000000000001       -1.5103999999999999E-002
   15.960000000000001       -4.9407000000000000E-002
   15.980000000000000       -6.5346000000000001E-002
   16.000000000000000       -7.4817999999999996E-002
   16.020000000000000       -7.2148000000000004E-002
   16.039999999999999       -8.6097000000000007E-002
   16.059999999999999       -9.6207000000000001E-002
   16.079999999999998      -0.11875200000000000     
   16.100000000000001      -0.12159000000000000     
   16.120000000000001      -0.10978200000000000     
   16.140000000000001       -9.0815999999999994E-002
   16.160000000000000       -8.6158999999999999E-002
   16.180000000000000       -7.2186000000000000E-002
   16.199999999999999       -6.3278000000000001E-002
   16.219999999999999       -5.7299000000000003E-002
   16.239999999999998       -6.1269999999999998E-002
   16.260000000000002       -4.7681000000000001E-002
   16.280000000000001       -4.1491000000000000E-002
   16.300000000000001       -2.1211000000000001E-002
   16.320000000000000        3.6449999999999998E-003
   16.340000000000000        2.1311000000000000E-002
   16.359999999999999        2.3684000000000000E-002
   16.379999999999999        1.1169999999999999E-002
   16.399999999999999       -9.5800000000000000E-003
   16.419999999999998       -1.3613999999999999E-002
   16.440000000000001       -2.0548000000000000E-002
   16.460000000000001       -1.6907999999999999E-002
   16.480000000000000        1.1901999999999999E-002
   16.500000000000000        2.8218000000000000E-002
   16.520000000000000        5.2978999999999998E-002
   16.539999999999999        6.8884000000000001E-002
   16.560000000000002        6.5186999999999995E-002
   16.580000000000002        3.9170000000000003E-002
   16.600000000000001        3.8850000000000000E-003
   16.620000000000001       -3.5080000000000000E-002
   16.640000000000001       -6.1961000000000002E-002
   16.660000000000000       -6.9418999999999995E-002
   16.680000000000000       -7.2874999999999995E-002
   16.699999999999999       -8.4903000000000006E-002
   16.720000000000002       -8.8159000000000001E-002
   16.740000000000002       -8.7010000000000004E-002
   16.760000000000002       -9.5231999999999997E-002
   16.780000000000001       -9.8026000000000002E-002
   16.800000000000001       -9.2791999999999999E-002
   16.820000000000000       -9.2911999999999995E-002
   16.840000000000000       -8.9001999999999998E-002
   16.859999999999999       -8.4984000000000004E-002
   16.879999999999999       -8.4226999999999996E-002
   16.900000000000002       -8.6578000000000002E-002
   16.920000000000002       -7.6864000000000002E-002
   16.940000000000001       -7.3230000000000003E-002
   16.960000000000001       -8.5674000000000000E-002
   16.980000000000000       -9.7833000000000003E-002
   17.000000000000000      -0.10156300000000000     
   17.020000000000000      -0.10190900000000000     
   17.039999999999999      -0.10369600000000000     
   17.060000000000002       -9.6940999999999999E-002
   17.080000000000002       -9.5978999999999995E-002
   17.100000000000001       -8.5139000000000006E-002
   17.120000000000001       -7.1018999999999999E-002
   17.140000000000001       -4.8186000000000000E-002
   17.160000000000000       -2.6442000000000000E-002
   17.180000000000000       -8.3940000000000004E-003
   17.199999999999999       -1.0920000000000001E-003
   17.220000000000002        4.9309999999999996E-003
   17.240000000000002        1.0513000000000000E-002
   17.260000000000002        1.7146999999999999E-002
   17.280000000000001        2.6098000000000000E-002
   17.300000000000001        4.5266000000000001E-002
   17.320000000000000        3.8928999999999998E-002
   17.340000000000000        3.3187000000000001E-002
   17.359999999999999        2.6990000000000000E-002
   17.379999999999999        2.6544000000000002E-002
   17.400000000000002        4.1879000000000000E-002
   17.420000000000002        4.4889999999999999E-002
   17.440000000000001        4.5890000000000000E-002
   17.460000000000001        4.7287999999999997E-002
   17.480000000000000        4.0085999999999997E-002
   17.500000000000000        4.1450000000000001E-002
   17.520000000000000        4.8880000000000000E-002
   17.539999999999999        6.0927000000000002E-002
   17.560000000000002        6.2315000000000002E-002
   17.580000000000002        6.8889000000000006E-002
   17.600000000000001        6.5598000000000004E-002
   17.620000000000001        4.7803999999999999E-002
   17.640000000000001        2.2290999999999998E-002
   17.660000000000000       -1.4690000000000000E-003
   17.680000000000000       -5.6119999999999998E-003
   17.699999999999999       -8.3649999999999992E-003
   17.720000000000002       -1.3202999999999999E-002
   17.740000000000002       -8.5550000000000001E-003
   17.760000000000002       -5.6969999999999998E-003
   17.780000000000001       -2.7959999999999999E-003
   17.800000000000001       -3.6210000000000001E-003
   17.820000000000000       -2.7151999999999999E-002
   17.840000000000000       -4.0344999999999999E-002
   17.859999999999999       -4.6587000000000003E-002
   17.880000000000003       -5.5493000000000001E-002
   17.900000000000002       -6.0338000000000003E-002
   17.920000000000002       -6.5750000000000003E-002
   17.940000000000001       -6.2589000000000006E-002
   17.960000000000001       -6.5223000000000003E-002
   17.980000000000000       -6.6069000000000003E-002
   18.000000000000000       -6.3690999999999998E-002
   18.020000000000000       -6.3112000000000001E-002
   18.039999999999999       -5.9889999999999999E-002
   18.060000000000002       -4.4365000000000002E-002
   18.080000000000002       -3.3175000000000003E-002
   18.100000000000001       -3.4889999999999997E-002
   18.120000000000001       -3.6553000000000002E-002
   18.140000000000001       -2.9752000000000001E-002
   18.160000000000000       -1.5268000000000000E-002
   18.180000000000000        1.9629000000000001E-002
   18.199999999999999        4.2602000000000001E-002
   18.220000000000002        5.1068000000000002E-002
   18.240000000000002        6.1425000000000000E-002
   18.260000000000002        7.3755000000000001E-002
   18.280000000000001        8.4169999999999995E-002
   18.300000000000001        9.1687000000000005E-002
   18.320000000000000       0.10697400000000000     
   18.340000000000000       0.11241300000000000     
   18.359999999999999       0.10036399999999999     
   18.380000000000003        8.5399000000000003E-002
   18.400000000000002        6.8295999999999996E-002
   18.420000000000002        5.0111000000000003E-002
   18.440000000000001        2.6681000000000000E-002
   18.460000000000001        1.2678000000000000E-002
   18.480000000000000       -1.1739999999999999E-003
   18.500000000000000        8.1460000000000005E-003
   18.520000000000000        4.1739999999999998E-003
   18.539999999999999        5.2180000000000004E-003
   18.560000000000002        1.2973000000000000E-002
   18.580000000000002        3.2000000000000001E-002
   18.600000000000001        3.3604000000000002E-002
   18.620000000000001        2.2224000000000001E-002
   18.640000000000001        3.1947999999999997E-002
   18.660000000000000        1.7232999999999998E-002
   18.680000000000000        8.9940000000000003E-003
   18.699999999999999        5.5040000000000002E-003
   18.720000000000002        1.1580000000000000E-003
   18.740000000000002       -7.2919999999999999E-003
   18.760000000000002       -1.9480000000000001E-002
   18.780000000000001       -1.5485000000000001E-002
   18.800000000000001       -2.5700000000000001E-002
   18.820000000000000       -4.1390000000000003E-002
   18.840000000000000       -4.7495999999999997E-002
   18.859999999999999       -5.0533000000000002E-002
   18.880000000000003       -6.8310999999999997E-002
   18.900000000000002       -6.6322000000000006E-002
   18.920000000000002       -6.6117999999999996E-002
   18.940000000000001       -4.9161999999999997E-002
   18.960000000000001       -4.2592999999999999E-002
   18.980000000000000       -4.5664999999999997E-002
   19.000000000000000       -4.6746000000000003E-002
   19.020000000000000       -3.7934000000000002E-002
   19.039999999999999       -4.2983000000000000E-002
   19.060000000000002       -4.9694000000000002E-002
   19.080000000000002       -3.3204999999999998E-002
   19.100000000000001       -4.3112999999999999E-002
   19.120000000000001       -3.6978999999999998E-002
   19.140000000000001       -2.6360999999999999E-002
   19.160000000000000       -1.3329000000000001E-002
   19.180000000000000        7.1599999999999995E-004
   19.199999999999999        1.2132000000000000E-002
   19.220000000000002        9.0600000000000003E-003
   19.240000000000002        1.5380000000000001E-003
   19.260000000000002       -3.0000000000000001E-006
   19.280000000000001        8.1300000000000001E-003
   19.300000000000001        2.3696999999999999E-002
   19.320000000000000        2.6136000000000000E-002
   19.340000000000000        1.8127999999999998E-002
   19.359999999999999        3.1350000000000003E-002
   19.380000000000003        3.0737000000000000E-002
   19.400000000000002        2.1086000000000001E-002
   19.420000000000002        1.8769000000000001E-002
   19.440000000000001        2.2571999999999998E-002
   19.460000000000001        2.9189000000000000E-002
   19.480000000000000        3.9192999999999999E-002
   19.500000000000000        4.0655999999999998E-002
   19.520000000000000        4.0085000000000003E-002
   19.539999999999999        3.8063000000000000E-002
   19.560000000000002        3.6309000000000001E-002
   19.580000000000002        2.7615000000000001E-002
   19.600000000000001        7.3590000000000001E-003
   19.620000000000001        4.7860000000000003E-003
   19.640000000000001       -3.2629999999999998E-003
   19.660000000000000        5.0000000000000002E-005
   19.680000000000000       -4.1619999999999999E-003
   19.699999999999999       -1.6292999999999998E-002
   19.720000000000002       -1.4541000000000000E-002
   19.740000000000002       -2.2709000000000000E-002
   19.760000000000002       -1.7798000000000001E-002
   19.780000000000001       -1.4926999999999999E-002
   19.800000000000001       -1.7391000000000000E-002
   19.820000000000000       -1.8811999999999999E-002
   19.840000000000000       -1.3436000000000000E-002
   19.859999999999999       -1.1166000000000001E-002
   19.880000000000003        3.1199999999999999E-003
   19.900000000000002       -2.1870000000000001E-003
   19.920000000000002       -6.5209999999999999E-003
   19.940000000000001       -6.6000000000000000E-003
   19.960000000000001       -2.2085000000000000E-002
   19.980000000000000       -3.1258000000000001E-002
   20.000000000000000       -3.0584000000000000E-002
   20.020000000000000       -3.4500000000000003E-002
   20.039999999999999       -3.2585000000000003E-002
   20.060000000000002       -2.5402999999999998E-002
   20.080000000000002       -8.5079999999999999E-003
   20.100000000000001       -6.6940000000000003E-003
   20.120000000000001       -9.2929999999999992E-003
   20.140000000000001       -1.8079999999999999E-003
   20.160000000000000       -2.3126000000000001E-002
   20.180000000000000       -3.5357000000000000E-002
   20.199999999999999       -5.1991999999999997E-002
   20.220000000000002       -4.9007000000000002E-002
   20.240000000000002       -3.5716999999999999E-002
   20.260000000000002       -1.6070000000000001E-002
   20.280000000000001       -5.0400000000000000E-004
   20.300000000000001        4.0930000000000003E-003
   20.320000000000000        9.7000000000000005E-004
   20.340000000000000        3.8760000000000001E-003
   20.359999999999999        1.0100000000000000E-004
   20.380000000000003        2.5609999999999999E-003
   20.400000000000002        8.7700000000000000E-003
   20.420000000000002        4.8580000000000003E-003
   20.440000000000001        8.7869999999999997E-003
   20.460000000000001       -2.9329999999999998E-003
   20.480000000000000       -2.2250000000000000E-003
   20.500000000000000       -9.9179999999999997E-003
   20.520000000000000       -1.5855000000000001E-002
   20.539999999999999       -2.1044000000000000E-002
   20.560000000000002       -1.7690999999999998E-002
   20.580000000000002       -9.5090000000000001E-003
   20.600000000000001       -3.4269999999999999E-003
   20.620000000000001        6.3579999999999999E-003
   20.640000000000001        1.5101000000000000E-002
   20.660000000000000        2.6051000000000001E-002
   20.680000000000000        2.6179000000000001E-002
   20.699999999999999        2.7406000000000000E-002
   20.720000000000002        3.2391999999999997E-002
   20.740000000000002        3.4374000000000002E-002
   20.760000000000002        4.3041999999999997E-002
   20.780000000000001        4.0131000000000000E-002
   20.800000000000001        3.8997999999999998E-002
   20.820000000000000        3.9211999999999997E-002
   20.840000000000000        3.3244000000000003E-002
   20.859999999999999        4.0672000000000000E-002
   20.880000000000003        5.0777000000000003E-002
   20.900000000000002        4.0114999999999998E-002
   20.920000000000002        3.6943999999999998E-002
   20.940000000000001        1.5671000000000001E-002
   20.960000000000001        1.9956999999999999E-002
   20.980000000000000        2.0041000000000000E-002
   21.000000000000000        1.9352000000000001E-002
   21.020000000000000        1.4676000000000000E-002
   21.039999999999999        1.0547000000000001E-002
   21.060000000000002        1.7375999999999999E-002
   21.080000000000002        2.3226000000000000E-002
   21.100000000000001        2.9498000000000000E-002
   21.120000000000001        2.6831000000000001E-002
   21.140000000000001        1.8225999999999999E-002
   21.160000000000000        2.7994000000000002E-002
   21.180000000000000        2.5774999999999999E-002
   21.199999999999999        9.5689999999999994E-003
   21.220000000000002        2.1957000000000001E-002
   21.240000000000002        1.4781000000000001E-002
   21.260000000000002        6.6499999999999997E-003
   21.280000000000001       -2.7780000000000001E-003
   21.300000000000001       -2.6350000000000002E-003
   21.320000000000000       -1.1590000000000001E-003
   21.340000000000000       -8.8690000000000001E-003
   21.359999999999999       -1.4057999999999999E-002
   21.380000000000003       -1.9417000000000000E-002
   21.400000000000002       -9.5020000000000000E-003
   21.420000000000002       -1.0862999999999999E-002
   21.440000000000001       -1.3422000000000000E-002
   21.460000000000001        1.2290000000000001E-003
   21.480000000000000       -3.4629999999999999E-003
   21.500000000000000       -1.2999999999999999E-004
   21.520000000000000        2.1320000000000002E-003
   21.539999999999999        1.3300000000000001E-004
   21.560000000000002       -9.1350000000000008E-003
   21.580000000000002       -6.0650000000000001E-003
   21.600000000000001       -1.5510000000000001E-003
   21.620000000000001        1.3597000000000000E-002
   21.640000000000001        1.3837000000000000E-002
   21.660000000000000        2.1530000000000001E-002
   21.680000000000000        2.5142000000000001E-002
   21.699999999999999        2.1607000000000001E-002
   21.720000000000002        6.2550000000000001E-003
   21.740000000000002        1.4970000000000001E-002
   21.760000000000002        3.9010000000000000E-003
   21.780000000000001       -1.4940000000000000E-002
   21.800000000000001       -3.8140000000000001E-003
   21.820000000000000       -1.4459000000000000E-002
   21.840000000000000       -1.5983000000000001E-002
   21.859999999999999       -2.0412000000000000E-002
   21.880000000000003       -1.4626000000000000E-002
   21.900000000000002       -2.5798999999999999E-002
   21.920000000000002       -3.6253000000000001E-002
   21.940000000000001       -2.8933000000000000E-002
   21.960000000000001       -3.0476000000000000E-002
   21.980000000000000       -2.7910000000000001E-002
   22.000000000000000       -2.1663000000000002E-002
   22.020000000000000       -7.9200000000000000E-003
   22.039999999999999       -8.3900000000000001E-004
   22.060000000000002       -5.2909999999999997E-003
   22.080000000000002       -1.9919999999999998E-003
   22.100000000000001        2.6483000000000000E-002
   22.120000000000001        1.9779000000000001E-002
   22.140000000000001        7.7949999999999998E-003
   22.160000000000000        2.3144999999999999E-002
   22.180000000000000        2.8103000000000000E-002
   22.199999999999999        3.4438999999999997E-002
   22.220000000000002        3.4251999999999998E-002
   22.240000000000002        2.9286000000000000E-002
   22.260000000000002        4.7754999999999999E-002
   22.280000000000001        4.5842000000000001E-002
   22.300000000000001        5.0258999999999998E-002
   22.320000000000000        5.3806000000000000E-002
   22.340000000000000        5.8939999999999999E-002
   22.359999999999999        4.7056000000000001E-002
   22.380000000000003        3.9252000000000002E-002
   22.400000000000002        2.8011000000000001E-002
   22.420000000000002        2.9052999999999999E-002
   22.440000000000001        1.5042000000000000E-002
   22.460000000000001        3.0880999999999999E-002
   22.480000000000000        3.5443000000000002E-002
   22.500000000000000        5.2056999999999999E-002
   22.520000000000000        5.6681000000000002E-002
   22.539999999999999        3.5506999999999997E-002
   22.560000000000002        4.6621999999999997E-002
   22.580000000000002        2.9488000000000000E-002
   22.600000000000001        3.3049000000000002E-002
   22.620000000000001        1.6146000000000001E-002
   22.640000000000001        2.4067999999999999E-002
   22.660000000000000        1.1563000000000000E-002
   22.680000000000000        5.5300000000000002E-003
   22.699999999999999        5.3839999999999999E-003
   22.720000000000002        7.6090000000000003E-003
   22.740000000000002        5.4900000000000001E-004
   22.760000000000002       -1.0506000000000000E-002
   22.780000000000001       -1.1592000000000000E-002
   22.800000000000001       -2.1062999999999998E-002
   22.820000000000000       -2.4846000000000000E-002
   22.840000000000000       -3.9840000000000000E-002
   22.859999999999999       -3.3904999999999998E-002
   22.880000000000003       -4.0042000000000001E-002
   22.900000000000002       -4.2057999999999998E-002
   22.920000000000002       -4.1107999999999999E-002
   22.940000000000001       -3.3512000000000000E-002
   22.960000000000001       -3.9287000000000002E-002
   22.980000000000000       -3.3070000000000002E-002
   23.000000000000000       -2.7927000000000000E-002
   23.020000000000000       -2.4279999999999999E-002
   23.039999999999999       -1.4907000000000000E-002
   23.060000000000002       -1.4546999999999999E-002
   23.080000000000002        6.5700000000000003E-004
   23.100000000000001       -8.1300000000000003E-004
   23.120000000000001        4.2000000000000002E-004
   23.140000000000001        6.4219999999999998E-003
   23.160000000000000        1.0297000000000001E-002
   23.180000000000000        1.3194000000000001E-002
   23.199999999999999        1.4770000000000000E-002
   23.220000000000002        1.4602000000000000E-002
   23.240000000000002        7.6779999999999999E-003
   23.260000000000002        1.5502000000000000E-002
   23.280000000000001        3.9600000000000000E-003
   23.300000000000001       -7.8230000000000001E-003
   23.320000000000000        7.5750000000000001E-003
   23.340000000000000        6.9999999999999999E-004
   23.359999999999999       -2.2179999999999999E-003
   23.380000000000003        7.7159999999999998E-003
   23.400000000000002        6.2200000000000005E-004
   23.420000000000002       -4.8000000000000001E-005
   23.440000000000001       -8.9910000000000007E-003
   23.460000000000001       -1.1186000000000000E-002
   23.480000000000000       -3.5109999999999998E-003
   23.500000000000000       -1.6760000000000001E-002
   23.520000000000000       -7.9579999999999998E-003
   23.539999999999999       -7.9590000000000008E-003
   23.560000000000002       -2.0161999999999999E-002
   23.580000000000002       -1.9474000000000002E-002
   23.600000000000001       -2.8983999999999999E-002
   23.620000000000001       -3.1154999999999999E-002
   23.640000000000001       -2.5637000000000000E-002
   23.660000000000000        2.0630000000000002E-003
   23.680000000000000        7.8200000000000003E-004
   23.699999999999999       -5.5740000000000000E-003
   23.720000000000002        3.0057000000000000E-002
   23.740000000000002        2.6984000000000001E-002
   23.760000000000002        2.6879999999999999E-003
   23.780000000000001        9.4059999999999994E-003
   23.800000000000001        7.5420000000000001E-003
   23.820000000000000        1.2661000000000000E-002
   23.840000000000000        1.7503999999999999E-002
   23.859999999999999        1.9826000000000000E-002
   23.880000000000003        2.2113000000000001E-002
   23.900000000000002        2.7118000000000000E-002
   23.920000000000002        2.7653000000000000E-002
   23.940000000000001        2.3923000000000000E-002
   23.960000000000001        1.5205000000000000E-002
   23.980000000000000        1.6539000000000002E-002
   24.000000000000000        1.4813000000000000E-002
   24.020000000000000        1.5855999999999999E-002
   24.039999999999999        1.0278000000000001E-002
   24.060000000000002        1.8766000000000001E-002
   24.080000000000002        1.1795999999999999E-002
   24.100000000000001        3.3850000000000000E-003
   24.120000000000001        1.7240999999999999E-002
   24.140000000000001        2.6839999999999999E-002
   24.160000000000000        2.7590000000000002E-003
   24.180000000000000       -2.9640000000000001E-003
   24.199999999999999        9.3939999999999996E-003
   24.220000000000002        5.2670000000000000E-003
   24.240000000000002        4.1859999999999996E-003
   24.260000000000002        8.1010000000000006E-003
   24.280000000000001        3.3769999999999998E-003
   24.300000000000001        2.5600000000000001E-002
   24.320000000000000        2.4695999999999999E-002
   24.340000000000000        8.4989999999999996E-003
   24.359999999999999        5.4920000000000004E-003
   24.380000000000003        1.6039000000000001E-002
   24.400000000000002        1.6697000000000000E-002
   24.420000000000002        3.4529999999999999E-003
   24.440000000000001        8.0630000000000007E-003
   24.460000000000001        1.8962000000000000E-002
   24.480000000000000        8.7410000000000005E-003
   24.500000000000000        1.8100999999999999E-002
   24.520000000000000        1.6697000000000000E-002
   24.540000000000003        1.4165000000000001E-002
   24.560000000000002        3.2919999999999998E-003
   24.580000000000002        3.1849999999999999E-003
   24.600000000000001       -1.2793000000000001E-002
   24.620000000000001       -2.0804000000000000E-002
   24.640000000000001       -3.1628000000000003E-002
   24.660000000000000       -2.5330999999999999E-002
   24.680000000000000       -1.8766999999999999E-002
   24.699999999999999       -1.9835999999999999E-002
   24.720000000000002       -2.8284000000000000E-002
   24.740000000000002       -3.8053999999999998E-002
   24.760000000000002       -2.8878000000000001E-002
   24.780000000000001       -1.2023000000000001E-002
   24.800000000000001       -2.0573999999999999E-002
   24.820000000000000       -2.2616000000000001E-002
   24.840000000000000       -1.4445000000000000E-002
   24.859999999999999       -1.8387000000000001E-002
   24.880000000000003       -1.9151999999999999E-002
   24.900000000000002       -5.0379999999999999E-003
   24.920000000000002       -9.9209999999999993E-003
   24.940000000000001        2.5899999999999999E-003
   24.960000000000001        6.3839999999999999E-003
   24.980000000000000       -2.0300000000000000E-004
   25.000000000000000        6.2500000000000003E-003
   25.020000000000000        1.0043000000000000E-002
   25.040000000000003        6.4780000000000003E-003
   25.060000000000002        2.2536000000000000E-002
   25.080000000000002        1.6992000000000000E-002
   25.100000000000001        2.3806000000000001E-002
   25.120000000000001        3.5166000000000003E-002
   25.140000000000001        2.8997999999999999E-002
   25.160000000000000        2.7906000000000000E-002
   25.180000000000000        1.7645000000000001E-002
   25.199999999999999        1.9590000000000000E-002
   25.220000000000002        1.5207999999999999E-002
   25.240000000000002        3.4099999999999998E-003
   25.260000000000002        3.3349999999999999E-003
   25.280000000000001        3.5379999999999999E-003
   25.300000000000001        6.5220000000000000E-003
   25.320000000000000       -1.1724000000000000E-002
   25.340000000000000       -1.4239999999999999E-003
   25.359999999999999       -6.6249999999999998E-003
   25.380000000000003       -5.9699999999999998E-004
   25.400000000000002       -9.5180000000000004E-003
   25.420000000000002       -5.3299999999999997E-003
   25.440000000000001       -2.5853999999999999E-002
   25.460000000000001       -1.7163000000000001E-002
   25.480000000000000       -1.5155000000000000E-002
   25.500000000000000       -8.8470000000000007E-003
   25.520000000000000       -3.5520000000000000E-003
   25.540000000000003       -3.1029999999999999E-003
   25.560000000000002       -5.9239999999999996E-003
   25.580000000000002       -1.1618000000000000E-002
   25.600000000000001        5.8970000000000003E-003
   25.620000000000001        1.3224000000000000E-002
   25.640000000000001        1.3622000000000000E-002
   25.660000000000000        1.0629000000000000E-002
   25.680000000000000        2.1756999999999999E-002
   25.699999999999999        6.9920000000000000E-003
   25.720000000000002        1.3438000000000000E-002
   25.740000000000002        2.0508999999999999E-002
   25.760000000000002        3.4574000000000001E-002
   25.780000000000001        2.9817000000000000E-002
   25.800000000000001        2.0726999999999999E-002
   25.820000000000000        2.2447999999999999E-002
   25.840000000000000        2.3296000000000001E-002
   25.859999999999999        1.5213000000000001E-002
   25.880000000000003        2.7126999999999998E-002
   25.900000000000002        1.9677000000000000E-002
   25.920000000000002        1.6271999999999998E-002
   25.940000000000001        1.8022000000000000E-002
   25.960000000000001        8.9079999999999993E-003
   25.980000000000000        2.0200000000000001E-003
   26.000000000000000        1.9889999999999999E-003
   26.020000000000000       -7.6730000000000001E-003
   26.040000000000003       -1.8870000000000000E-003
   26.060000000000002        5.0350000000000004E-003
   26.080000000000002       -2.5940000000000000E-003
   26.100000000000001       -4.1159999999999999E-003
   26.120000000000001       -1.0304000000000001E-002
   26.140000000000001       -2.2612000000000000E-002
   26.160000000000000       -2.1573999999999999E-002
   26.180000000000000       -2.4534000000000000E-002
   26.199999999999999       -1.9375000000000000E-002
   26.220000000000002       -1.0281000000000000E-002
   26.240000000000002       -1.7541999999999999E-002
   26.260000000000002       -2.7368000000000000E-002
   26.280000000000001       -3.9127000000000002E-002
   26.300000000000001       -4.1721000000000001E-002
   26.320000000000000       -3.0731999999999999E-002
   26.340000000000000       -2.7951000000000000E-002
   26.359999999999999       -3.8664999999999998E-002
   26.380000000000003       -2.8590999999999998E-002
   26.400000000000002       -2.4809999999999999E-002
   26.420000000000002       -2.9812000000000002E-002
   26.440000000000001       -1.5427000000000000E-002
   26.460000000000001       -1.0200000000000001E-002
   26.480000000000000       -1.9330000000000000E-002
   26.500000000000000       -9.3360000000000005E-003
   26.520000000000000        5.7970000000000001E-003
   26.540000000000003        2.5209999999999998E-003
   26.560000000000002        1.1349999999999999E-003
   26.580000000000002        4.8849999999999996E-003
   26.600000000000001        8.9999999999999993E-003
   26.620000000000001        1.1398000000000000E-002
   26.640000000000001        1.3727000000000000E-002
   26.660000000000000        2.5812000000000002E-002
   26.680000000000000        1.2111000000000000E-002
   26.699999999999999        9.1640000000000003E-003
   26.720000000000002        6.3309999999999998E-003
   26.740000000000002        2.3710999999999999E-002
   26.760000000000002        5.8399999999999999E-004
   26.780000000000001       -1.2803000000000000E-002
   26.800000000000001       -3.2339999999999999E-003
   26.820000000000000       -1.2168000000000000E-002
   26.840000000000000       -1.3212000000000000E-002
   26.859999999999999       -2.8273000000000000E-002
   26.880000000000003       -2.2966000000000000E-002
   26.900000000000002       -2.8396000000000001E-002
   26.920000000000002       -1.7416999999999998E-002
   26.940000000000001       -2.2800000000000001E-002
   26.960000000000001       -6.4809999999999998E-003
   26.980000000000000       -1.3781000000000000E-002
   27.000000000000000       -2.0967000000000000E-002
   27.020000000000000       -1.3578000000000000E-002
   27.040000000000003        1.8029999999999999E-003
   27.060000000000002       -2.7238999999999999E-002
   27.080000000000002       -1.1981000000000000E-002
   27.100000000000001        3.6470000000000001E-003
   27.120000000000001       -4.0879999999999996E-003
   27.140000000000001        1.3056999999999999E-002
   27.160000000000000        2.5739999999999999E-003
   27.180000000000000        1.1620000000000000E-002
   27.199999999999999       -4.5600000000000003E-004
   27.220000000000002        1.1645000000000001E-002
   27.240000000000002        1.2630000000000000E-003
   27.260000000000002        9.1640000000000003E-003
   27.280000000000001        1.0625000000000001E-002
   27.300000000000001       -1.0704999999999999E-002
   27.320000000000000        3.3340000000000002E-003
   27.340000000000000       -1.1527000000000001E-002
   27.359999999999999       -5.7700000000000000E-003
   27.380000000000003        1.6093000000000000E-002
   27.400000000000002        5.2729999999999999E-003
   27.420000000000002       -2.4280000000000000E-003
   27.440000000000001       -1.1004999999999999E-002
   27.460000000000001        5.3200000000000001E-003
   27.480000000000000       -2.1129999999999999E-003
   27.500000000000000       -7.1209999999999997E-003
   27.520000000000000        1.3098000000000000E-002
   27.540000000000003       -3.9100000000000003E-003
   27.560000000000002       -8.8859999999999998E-003
   27.580000000000002       -8.0789999999999994E-003
   27.600000000000001       -6.8110000000000002E-003
   27.620000000000001       -1.5167999999999999E-002
   27.640000000000001       -2.4243000000000001E-002
   27.660000000000000       -3.4328999999999998E-002
   27.680000000000000       -1.9266999999999999E-002
   27.699999999999999       -1.3903000000000000E-002
   27.720000000000002       -2.6425000000000001E-002
   27.740000000000002       -9.5379999999999996E-003
   27.760000000000002       -2.4858999999999999E-002
   27.780000000000001       -1.3717999999999999E-002
   27.800000000000001       -1.2423999999999999E-002
   27.820000000000000       -3.5639999999999999E-003
   27.840000000000000        8.6719999999999992E-003
   27.859999999999999        7.8919999999999997E-003
   27.880000000000003        4.0460000000000001E-003
   27.900000000000002        7.7600000000000004E-003
   27.920000000000002       -7.5100000000000004E-004
   27.940000000000001        3.9699999999999996E-003
   27.960000000000001        1.2097000000000000E-002
   27.980000000000000        1.0978999999999999E-002
   28.000000000000000        2.2981999999999999E-002
   28.020000000000000        2.0459999999999999E-002
   28.040000000000003        1.4300999999999999E-002
   28.060000000000002        2.7424000000000000E-002
   28.080000000000002        2.6712000000000000E-002
   28.100000000000001        1.4429000000000001E-002
   28.120000000000001        1.0100000000000000E-004
   28.140000000000001        6.3020000000000003E-003
   28.160000000000000        7.8040000000000002E-003
   28.180000000000000        6.4739999999999997E-003
   28.199999999999999       -2.0560000000000001E-003
   28.220000000000002       -2.8080000000000002E-003
   28.240000000000002       -3.3900000000000000E-004
   28.260000000000002        5.3850000000000000E-003
   28.280000000000001        5.8009999999999997E-003
   28.300000000000001        3.6999999999999999E-004
   28.320000000000000       -1.6833999999999998E-002
   28.340000000000000       -1.0009999999999999E-003
   28.359999999999999        5.2459999999999998E-003
   28.380000000000003        7.9199999999999995E-004
   28.400000000000002       -5.2769999999999996E-003
   28.420000000000002       -3.3679999999999999E-003
   28.440000000000001        2.3170000000000000E-003
   28.460000000000001       -1.4600000000000000E-004
   28.480000000000000       -9.7719999999999994E-003
   28.500000000000000       -7.6579999999999999E-003
   28.520000000000000       -1.2159000000000000E-002
   28.540000000000003       -6.1520000000000004E-003
   28.560000000000002        3.5550000000000000E-003
   28.580000000000002       -6.8440000000000003E-003
   28.600000000000001       -1.5577000000000001E-002
   28.620000000000001       -1.6941000000000001E-002
   28.640000000000001       -7.8700000000000003E-003
   28.660000000000000       -1.7513000000000001E-002
   28.680000000000000       -2.9390000000000002E-003
   28.699999999999999        1.5430000000000001E-003
   28.720000000000002       -1.3270000000000001E-003
   28.740000000000002       -1.2803000000000000E-002
   28.760000000000002       -7.9089999999999994E-003
   28.780000000000001       -1.0462000000000001E-002
   28.800000000000001       -7.9480000000000002E-003
   28.820000000000000       -5.0010000000000002E-003
   28.840000000000000       -2.3463000000000001E-002
   28.859999999999999       -2.3078999999999999E-002
   28.880000000000003       -1.8210000000000000E-002
   28.900000000000002       -1.9990000000000001E-002
   28.920000000000002       -2.8566999999999999E-002
   28.940000000000001       -2.1741000000000000E-002
   28.960000000000001       -1.9105000000000000E-002
   28.980000000000000       -2.8861000000000001E-002
   29.000000000000000       -2.5468000000000001E-002
   29.020000000000000       -2.8622999999999999E-002
   29.040000000000003       -1.7191000000000001E-002
   29.060000000000002       -2.1489999999999999E-002
   29.080000000000002       -5.4530000000000004E-003
   29.100000000000001       -5.9829999999999996E-003
   29.120000000000001       -2.1916999999999999E-002
   29.140000000000001       -1.8929999999999999E-002
   29.160000000000000       -8.9510000000000006E-003
   29.180000000000000       -8.7620000000000007E-003
   29.199999999999999       -1.2772000000000000E-002
   29.220000000000002        5.8760000000000001E-003
   29.240000000000002        2.6740000000000002E-003
   29.260000000000002       -5.7959999999999999E-003
   29.280000000000001       -1.3550000000000001E-003
   29.300000000000001       -3.7910000000000001E-003
   29.320000000000000       -2.1009000000000000E-002
   29.340000000000000        3.5969999999999999E-003
   29.359999999999999       -7.7039999999999999E-003
   29.380000000000003       -2.2408000000000001E-002
   29.400000000000002       -7.5009999999999999E-003
   29.420000000000002        8.5599999999999999E-004
   29.440000000000001       -9.5829999999999995E-003
   29.460000000000001       -2.0164999999999999E-002
   29.480000000000000       -1.0311000000000001E-002
   29.500000000000000       -1.1032999999999999E-002
   29.520000000000000       -2.8250000000000001E-002
   29.540000000000003       -2.0986000000000001E-002
   29.560000000000002       -3.7180000000000000E-003
   29.580000000000002       -6.7470000000000004E-003
   29.600000000000001       -1.3749000000000001E-002
   29.620000000000001       -4.9490000000000003E-003
   29.640000000000001       -2.0375999999999998E-002
   29.660000000000000       -1.0169999999999999E-003
   29.680000000000000       -3.3390000000000000E-003
   29.699999999999999       -6.8780000000000004E-003
   29.720000000000002       -3.0100000000000001E-003
   29.740000000000002       -1.6039999999999999E-002
   29.760000000000002       -1.8620000000000001E-002
   29.780000000000001       -1.7799999999999999E-004
   29.800000000000001        2.0820000000000001E-003
   29.820000000000000       -3.3720000000000000E-003
   29.840000000000000       -4.2900000000000002E-004
   29.859999999999999       -1.0158000000000000E-002
   29.880000000000003        9.2669999999999992E-003
   29.900000000000002        6.4859999999999996E-003
   29.920000000000002       -2.4694000000000001E-002
   29.940000000000001        1.3960000000000001E-003
   29.960000000000001        4.8570000000000002E-003
